*Heading
** Job name: v1_auto_614 Model name: v1
** Generated by: Abaqus/CAE 6.14-1
*Preprint, echo=NO, model=NO, history=NO, contact=NO
*Part, name=MP
*Node
1,-1.256,1.256, 0.
2,-0.628,1.256, 0.
3,0.0,1.256, 0.
4,0.6279999999999999,1.256, 0.
5,1.256,1.256, 0.
6,-1.256,0.628, 0.
7,-0.628,0.628, 0.
8,0.0,0.628, 0.
9,0.6279999999999999,0.628, 0.
10,1.256,0.628, 0.
11,-1.256,0.0, 0.
12,-0.628,0.0, 0.
13,0.0,0.0, 0.
14,0.6279999999999999,0.0, 0.
15,1.256,0.0, 0.
16,-1.256,-0.6279999999999999, 0.
17,-0.628,-0.6279999999999999, 0.
18,0.0,-0.6279999999999999, 0.
19,0.6279999999999999,-0.6279999999999999, 0.
20,1.256,-0.6279999999999999, 0.
21,-1.256,-1.256, 0.
22,-0.628,-1.256, 0.
23,0.0,-1.256, 0.
24,0.6279999999999999,-1.256, 0.
25,1.256,-1.256, 0.
26,3.06339,1.256, 0.
27,3.69139,1.256, 0.
28,4.31939,1.256, 0.
29,4.94739,1.256, 0.
30,5.5753900000000005,1.256, 0.
31,3.06339,0.628, 0.
32,3.69139,0.628, 0.
33,4.31939,0.628, 0.
34,4.94739,0.628, 0.
35,5.5753900000000005,0.628, 0.
36,3.06339,0.0, 0.
37,3.69139,0.0, 0.
38,4.31939,0.0, 0.
39,4.94739,0.0, 0.
40,5.5753900000000005,0.0, 0.
41,3.06339,-0.6279999999999999, 0.
42,3.69139,-0.6279999999999999, 0.
43,4.31939,-0.6279999999999999, 0.
44,4.94739,-0.6279999999999999, 0.
45,5.5753900000000005,-0.6279999999999999, 0.
46,3.06339,-1.256, 0.
47,3.69139,-1.256, 0.
48,4.31939,-1.256, 0.
49,4.94739,-1.256, 0.
50,5.5753900000000005,-1.256, 0.
51,7.41067,1.256, 0.
52,8.03867,1.256, 0.
53,8.66667,1.256, 0.
54,9.29467,1.256, 0.
55,9.92267,1.256, 0.
56,7.41067,0.628, 0.
57,8.03867,0.628, 0.
58,8.66667,0.628, 0.
59,9.29467,0.628, 0.
60,9.92267,0.628, 0.
61,7.41067,0.0, 0.
62,8.03867,0.0, 0.
63,8.66667,0.0, 0.
64,9.29467,0.0, 0.
65,9.92267,0.0, 0.
66,7.41067,-0.6279999999999999, 0.
67,8.03867,-0.6279999999999999, 0.
68,8.66667,-0.6279999999999999, 0.
69,9.29467,-0.6279999999999999, 0.
70,9.92267,-0.6279999999999999, 0.
71,7.41067,-1.256, 0.
72,8.03867,-1.256, 0.
73,8.66667,-1.256, 0.
74,9.29467,-1.256, 0.
75,9.92267,-1.256, 0.
76,11.818022,1.256, 0.
77,12.446022,1.256, 0.
78,13.074022,1.256, 0.
79,13.702022,1.256, 0.
80,14.330022,1.256, 0.
81,11.818022,0.628, 0.
82,12.446022,0.628, 0.
83,13.074022,0.628, 0.
84,13.702022,0.628, 0.
85,14.330022,0.628, 0.
86,11.818022,0.0, 0.
87,12.446022,0.0, 0.
88,13.074022,0.0, 0.
89,13.702022,0.0, 0.
90,14.330022,0.0, 0.
91,11.818022,-0.6279999999999999, 0.
92,12.446022,-0.6279999999999999, 0.
93,13.074022,-0.6279999999999999, 0.
94,13.702022,-0.6279999999999999, 0.
95,14.330022,-0.6279999999999999, 0.
96,11.818022,-1.256, 0.
97,12.446022,-1.256, 0.
98,13.074022,-1.256, 0.
99,13.702022,-1.256, 0.
100,14.330022,-1.256, 0.
101,16.230021999999998,1.256, 0.
102,16.858022,1.256, 0.
103,17.486022,1.256, 0.
104,18.114022,1.256, 0.
105,18.742022,1.256, 0.
106,16.230021999999998,0.628, 0.
107,16.858022,0.628, 0.
108,17.486022,0.628, 0.
109,18.114022,0.628, 0.
110,18.742022,0.628, 0.
111,16.230021999999998,0.0, 0.
112,16.858022,0.0, 0.
113,17.486022,0.0, 0.
114,18.114022,0.0, 0.
115,18.742022,0.0, 0.
116,16.230021999999998,-0.6279999999999999, 0.
117,16.858022,-0.6279999999999999, 0.
118,17.486022,-0.6279999999999999, 0.
119,18.114022,-0.6279999999999999, 0.
120,18.742022,-0.6279999999999999, 0.
121,16.230021999999998,-1.256, 0.
122,16.858022,-1.256, 0.
123,17.486022,-1.256, 0.
124,18.114022,-1.256, 0.
125,18.742022,-1.256, 0.
126,20.594227,1.256, 0.
127,21.222227,1.256, 0.
128,21.850227,1.256, 0.
129,22.478227,1.256, 0.
130,23.106227,1.256, 0.
131,20.594227,0.628, 0.
132,21.222227,0.628, 0.
133,21.850227,0.628, 0.
134,22.478227,0.628, 0.
135,23.106227,0.628, 0.
136,20.594227,0.0, 0.
137,21.222227,0.0, 0.
138,21.850227,0.0, 0.
139,22.478227,0.0, 0.
140,23.106227,0.0, 0.
141,20.594227,-0.6279999999999999, 0.
142,21.222227,-0.6279999999999999, 0.
143,21.850227,-0.6279999999999999, 0.
144,22.478227,-0.6279999999999999, 0.
145,23.106227,-0.6279999999999999, 0.
146,20.594227,-1.256, 0.
147,21.222227,-1.256, 0.
148,21.850227,-1.256, 0.
149,22.478227,-1.256, 0.
150,23.106227,-1.256, 0.
151,24.906227,1.256, 0.
152,25.534227,1.256, 0.
153,26.162227,1.256, 0.
154,26.790227,1.256, 0.
155,27.418227,1.256, 0.
156,24.906227,0.628, 0.
157,25.534227,0.628, 0.
158,26.162227,0.628, 0.
159,26.790227,0.628, 0.
160,27.418227,0.628, 0.
161,24.906227,0.0, 0.
162,25.534227,0.0, 0.
163,26.162227,0.0, 0.
164,26.790227,0.0, 0.
165,27.418227,0.0, 0.
166,24.906227,-0.6279999999999999, 0.
167,25.534227,-0.6279999999999999, 0.
168,26.162227,-0.6279999999999999, 0.
169,26.790227,-0.6279999999999999, 0.
170,27.418227,-0.6279999999999999, 0.
171,24.906227,-1.256, 0.
172,25.534227,-1.256, 0.
173,26.162227,-1.256, 0.
174,26.790227,-1.256, 0.
175,27.418227,-1.256, 0.
176,-1.256,-3.1079669999999995, 0.
177,-0.628,-3.1079669999999995, 0.
178,0.0,-3.1079669999999995, 0.
179,0.6279999999999999,-3.1079669999999995, 0.
180,1.256,-3.1079669999999995, 0.
181,-1.256,-3.7359669999999996, 0.
182,-0.628,-3.7359669999999996, 0.
183,0.0,-3.7359669999999996, 0.
184,0.6279999999999999,-3.7359669999999996, 0.
185,1.256,-3.7359669999999996, 0.
186,-1.256,-4.363967, 0.
187,-0.628,-4.363967, 0.
188,0.0,-4.363967, 0.
189,0.6279999999999999,-4.363967, 0.
190,1.256,-4.363967, 0.
191,-1.256,-4.991966999999999, 0.
192,-0.628,-4.991966999999999, 0.
193,0.0,-4.991966999999999, 0.
194,0.6279999999999999,-4.991966999999999, 0.
195,1.256,-4.991966999999999, 0.
196,-1.256,-5.619966999999999, 0.
197,-0.628,-5.619966999999999, 0.
198,0.0,-5.619966999999999, 0.
199,0.6279999999999999,-5.619966999999999, 0.
200,1.256,-5.619966999999999, 0.
201,3.06339,-3.1079669999999995, 0.
202,3.69139,-3.1079669999999995, 0.
203,4.31939,-3.1079669999999995, 0.
204,4.94739,-3.1079669999999995, 0.
205,5.5753900000000005,-3.1079669999999995, 0.
206,3.06339,-3.7359669999999996, 0.
207,3.69139,-3.7359669999999996, 0.
208,4.31939,-3.7359669999999996, 0.
209,4.94739,-3.7359669999999996, 0.
210,5.5753900000000005,-3.7359669999999996, 0.
211,3.06339,-4.363967, 0.
212,3.69139,-4.363967, 0.
213,4.31939,-4.363967, 0.
214,4.94739,-4.363967, 0.
215,5.5753900000000005,-4.363967, 0.
216,3.06339,-4.991966999999999, 0.
217,3.69139,-4.991966999999999, 0.
218,4.31939,-4.991966999999999, 0.
219,4.94739,-4.991966999999999, 0.
220,5.5753900000000005,-4.991966999999999, 0.
221,3.06339,-5.619966999999999, 0.
222,3.69139,-5.619966999999999, 0.
223,4.31939,-5.619966999999999, 0.
224,4.94739,-5.619966999999999, 0.
225,5.5753900000000005,-5.619966999999999, 0.
226,7.41067,-3.1079669999999995, 0.
227,8.03867,-3.1079669999999995, 0.
228,8.66667,-3.1079669999999995, 0.
229,9.29467,-3.1079669999999995, 0.
230,9.92267,-3.1079669999999995, 0.
231,7.41067,-3.7359669999999996, 0.
232,8.03867,-3.7359669999999996, 0.
233,8.66667,-3.7359669999999996, 0.
234,9.29467,-3.7359669999999996, 0.
235,9.92267,-3.7359669999999996, 0.
236,7.41067,-4.363967, 0.
237,8.03867,-4.363967, 0.
238,8.66667,-4.363967, 0.
239,9.29467,-4.363967, 0.
240,9.92267,-4.363967, 0.
241,7.41067,-4.991966999999999, 0.
242,8.03867,-4.991966999999999, 0.
243,8.66667,-4.991966999999999, 0.
244,9.29467,-4.991966999999999, 0.
245,9.92267,-4.991966999999999, 0.
246,7.41067,-5.619966999999999, 0.
247,8.03867,-5.619966999999999, 0.
248,8.66667,-5.619966999999999, 0.
249,9.29467,-5.619966999999999, 0.
250,9.92267,-5.619966999999999, 0.
251,11.818022,-3.1079669999999995, 0.
252,12.446022,-3.1079669999999995, 0.
253,13.074022,-3.1079669999999995, 0.
254,13.702022,-3.1079669999999995, 0.
255,14.330022,-3.1079669999999995, 0.
256,11.818022,-3.7359669999999996, 0.
257,12.446022,-3.7359669999999996, 0.
258,13.074022,-3.7359669999999996, 0.
259,13.702022,-3.7359669999999996, 0.
260,14.330022,-3.7359669999999996, 0.
261,11.818022,-4.363967, 0.
262,12.446022,-4.363967, 0.
263,13.074022,-4.363967, 0.
264,13.702022,-4.363967, 0.
265,14.330022,-4.363967, 0.
266,11.818022,-4.991966999999999, 0.
267,12.446022,-4.991966999999999, 0.
268,13.074022,-4.991966999999999, 0.
269,13.702022,-4.991966999999999, 0.
270,14.330022,-4.991966999999999, 0.
271,11.818022,-5.619966999999999, 0.
272,12.446022,-5.619966999999999, 0.
273,13.074022,-5.619966999999999, 0.
274,13.702022,-5.619966999999999, 0.
275,14.330022,-5.619966999999999, 0.
276,16.230021999999998,-3.1079669999999995, 0.
277,16.858022,-3.1079669999999995, 0.
278,17.486022,-3.1079669999999995, 0.
279,18.114022,-3.1079669999999995, 0.
280,18.742022,-3.1079669999999995, 0.
281,16.230021999999998,-3.7359669999999996, 0.
282,16.858022,-3.7359669999999996, 0.
283,17.486022,-3.7359669999999996, 0.
284,18.114022,-3.7359669999999996, 0.
285,18.742022,-3.7359669999999996, 0.
286,16.230021999999998,-4.363967, 0.
287,16.858022,-4.363967, 0.
288,17.486022,-4.363967, 0.
289,18.114022,-4.363967, 0.
290,18.742022,-4.363967, 0.
291,16.230021999999998,-4.991966999999999, 0.
292,16.858022,-4.991966999999999, 0.
293,17.486022,-4.991966999999999, 0.
294,18.114022,-4.991966999999999, 0.
295,18.742022,-4.991966999999999, 0.
296,16.230021999999998,-5.619966999999999, 0.
297,16.858022,-5.619966999999999, 0.
298,17.486022,-5.619966999999999, 0.
299,18.114022,-5.619966999999999, 0.
300,18.742022,-5.619966999999999, 0.
301,20.594227,-3.1079669999999995, 0.
302,21.222227,-3.1079669999999995, 0.
303,21.850227,-3.1079669999999995, 0.
304,22.478227,-3.1079669999999995, 0.
305,23.106227,-3.1079669999999995, 0.
306,20.594227,-3.7359669999999996, 0.
307,21.222227,-3.7359669999999996, 0.
308,21.850227,-3.7359669999999996, 0.
309,22.478227,-3.7359669999999996, 0.
310,23.106227,-3.7359669999999996, 0.
311,20.594227,-4.363967, 0.
312,21.222227,-4.363967, 0.
313,21.850227,-4.363967, 0.
314,22.478227,-4.363967, 0.
315,23.106227,-4.363967, 0.
316,20.594227,-4.991966999999999, 0.
317,21.222227,-4.991966999999999, 0.
318,21.850227,-4.991966999999999, 0.
319,22.478227,-4.991966999999999, 0.
320,23.106227,-4.991966999999999, 0.
321,20.594227,-5.619966999999999, 0.
322,21.222227,-5.619966999999999, 0.
323,21.850227,-5.619966999999999, 0.
324,22.478227,-5.619966999999999, 0.
325,23.106227,-5.619966999999999, 0.
326,24.906227,-3.1079669999999995, 0.
327,25.534227,-3.1079669999999995, 0.
328,26.162227,-3.1079669999999995, 0.
329,26.790227,-3.1079669999999995, 0.
330,27.418227,-3.1079669999999995, 0.
331,24.906227,-3.7359669999999996, 0.
332,25.534227,-3.7359669999999996, 0.
333,26.162227,-3.7359669999999996, 0.
334,26.790227,-3.7359669999999996, 0.
335,27.418227,-3.7359669999999996, 0.
336,24.906227,-4.363967, 0.
337,25.534227,-4.363967, 0.
338,26.162227,-4.363967, 0.
339,26.790227,-4.363967, 0.
340,27.418227,-4.363967, 0.
341,24.906227,-4.991966999999999, 0.
342,25.534227,-4.991966999999999, 0.
343,26.162227,-4.991966999999999, 0.
344,26.790227,-4.991966999999999, 0.
345,27.418227,-4.991966999999999, 0.
346,24.906227,-5.619966999999999, 0.
347,25.534227,-5.619966999999999, 0.
348,26.162227,-5.619966999999999, 0.
349,26.790227,-5.619966999999999, 0.
350,27.418227,-5.619966999999999, 0.
351,-1.256,-7.485163999999999, 0.
352,-0.628,-7.485163999999999, 0.
353,0.0,-7.485163999999999, 0.
354,0.6279999999999999,-7.485163999999999, 0.
355,1.256,-7.485163999999999, 0.
356,-1.256,-8.113164, 0.
357,-0.628,-8.113164, 0.
358,0.0,-8.113164, 0.
359,0.6279999999999999,-8.113164, 0.
360,1.256,-8.113164, 0.
361,-1.256,-8.741164, 0.
362,-0.628,-8.741164, 0.
363,0.0,-8.741164, 0.
364,0.6279999999999999,-8.741164, 0.
365,1.256,-8.741164, 0.
366,-1.256,-9.369164, 0.
367,-0.628,-9.369164, 0.
368,0.0,-9.369164, 0.
369,0.6279999999999999,-9.369164, 0.
370,1.256,-9.369164, 0.
371,-1.256,-9.997164, 0.
372,-0.628,-9.997164, 0.
373,0.0,-9.997164, 0.
374,0.6279999999999999,-9.997164, 0.
375,1.256,-9.997164, 0.
376,3.06339,-7.485163999999999, 0.
377,3.69139,-7.485163999999999, 0.
378,4.31939,-7.485163999999999, 0.
379,4.94739,-7.485163999999999, 0.
380,5.5753900000000005,-7.485163999999999, 0.
381,3.06339,-8.113164, 0.
382,3.69139,-8.113164, 0.
383,4.31939,-8.113164, 0.
384,4.94739,-8.113164, 0.
385,5.5753900000000005,-8.113164, 0.
386,3.06339,-8.741164, 0.
387,3.69139,-8.741164, 0.
388,4.31939,-8.741164, 0.
389,4.94739,-8.741164, 0.
390,5.5753900000000005,-8.741164, 0.
391,3.06339,-9.369164, 0.
392,3.69139,-9.369164, 0.
393,4.31939,-9.369164, 0.
394,4.94739,-9.369164, 0.
395,5.5753900000000005,-9.369164, 0.
396,3.06339,-9.997164, 0.
397,3.69139,-9.997164, 0.
398,4.31939,-9.997164, 0.
399,4.94739,-9.997164, 0.
400,5.5753900000000005,-9.997164, 0.
401,7.41067,-7.485163999999999, 0.
402,8.03867,-7.485163999999999, 0.
403,8.66667,-7.485163999999999, 0.
404,9.29467,-7.485163999999999, 0.
405,9.92267,-7.485163999999999, 0.
406,7.41067,-8.113164, 0.
407,8.03867,-8.113164, 0.
408,8.66667,-8.113164, 0.
409,9.29467,-8.113164, 0.
410,9.92267,-8.113164, 0.
411,7.41067,-8.741164, 0.
412,8.03867,-8.741164, 0.
413,8.66667,-8.741164, 0.
414,9.29467,-8.741164, 0.
415,9.92267,-8.741164, 0.
416,7.41067,-9.369164, 0.
417,8.03867,-9.369164, 0.
418,8.66667,-9.369164, 0.
419,9.29467,-9.369164, 0.
420,9.92267,-9.369164, 0.
421,7.41067,-9.997164, 0.
422,8.03867,-9.997164, 0.
423,8.66667,-9.997164, 0.
424,9.29467,-9.997164, 0.
425,9.92267,-9.997164, 0.
426,11.818022,-7.485163999999999, 0.
427,12.446022,-7.485163999999999, 0.
428,13.074022,-7.485163999999999, 0.
429,13.702022,-7.485163999999999, 0.
430,14.330022,-7.485163999999999, 0.
431,11.818022,-8.113164, 0.
432,12.446022,-8.113164, 0.
433,13.074022,-8.113164, 0.
434,13.702022,-8.113164, 0.
435,14.330022,-8.113164, 0.
436,11.818022,-8.741164, 0.
437,12.446022,-8.741164, 0.
438,13.074022,-8.741164, 0.
439,13.702022,-8.741164, 0.
440,14.330022,-8.741164, 0.
441,11.818022,-9.369164, 0.
442,12.446022,-9.369164, 0.
443,13.074022,-9.369164, 0.
444,13.702022,-9.369164, 0.
445,14.330022,-9.369164, 0.
446,11.818022,-9.997164, 0.
447,12.446022,-9.997164, 0.
448,13.074022,-9.997164, 0.
449,13.702022,-9.997164, 0.
450,14.330022,-9.997164, 0.
451,16.230021999999998,-7.485163999999999, 0.
452,16.858022,-7.485163999999999, 0.
453,17.486022,-7.485163999999999, 0.
454,18.114022,-7.485163999999999, 0.
455,18.742022,-7.485163999999999, 0.
456,16.230021999999998,-8.113164, 0.
457,16.858022,-8.113164, 0.
458,17.486022,-8.113164, 0.
459,18.114022,-8.113164, 0.
460,18.742022,-8.113164, 0.
461,16.230021999999998,-8.741164, 0.
462,16.858022,-8.741164, 0.
463,17.486022,-8.741164, 0.
464,18.114022,-8.741164, 0.
465,18.742022,-8.741164, 0.
466,16.230021999999998,-9.369164, 0.
467,16.858022,-9.369164, 0.
468,17.486022,-9.369164, 0.
469,18.114022,-9.369164, 0.
470,18.742022,-9.369164, 0.
471,16.230021999999998,-9.997164, 0.
472,16.858022,-9.997164, 0.
473,17.486022,-9.997164, 0.
474,18.114022,-9.997164, 0.
475,18.742022,-9.997164, 0.
476,20.594227,-7.485163999999999, 0.
477,21.222227,-7.485163999999999, 0.
478,21.850227,-7.485163999999999, 0.
479,22.478227,-7.485163999999999, 0.
480,23.106227,-7.485163999999999, 0.
481,20.594227,-8.113164, 0.
482,21.222227,-8.113164, 0.
483,21.850227,-8.113164, 0.
484,22.478227,-8.113164, 0.
485,23.106227,-8.113164, 0.
486,20.594227,-8.741164, 0.
487,21.222227,-8.741164, 0.
488,21.850227,-8.741164, 0.
489,22.478227,-8.741164, 0.
490,23.106227,-8.741164, 0.
491,20.594227,-9.369164, 0.
492,21.222227,-9.369164, 0.
493,21.850227,-9.369164, 0.
494,22.478227,-9.369164, 0.
495,23.106227,-9.369164, 0.
496,20.594227,-9.997164, 0.
497,21.222227,-9.997164, 0.
498,21.850227,-9.997164, 0.
499,22.478227,-9.997164, 0.
500,23.106227,-9.997164, 0.
501,24.906227,-7.485163999999999, 0.
502,25.534227,-7.485163999999999, 0.
503,26.162227,-7.485163999999999, 0.
504,26.790227,-7.485163999999999, 0.
505,27.418227,-7.485163999999999, 0.
506,24.906227,-8.113164, 0.
507,25.534227,-8.113164, 0.
508,26.162227,-8.113164, 0.
509,26.790227,-8.113164, 0.
510,27.418227,-8.113164, 0.
511,24.906227,-8.741164, 0.
512,25.534227,-8.741164, 0.
513,26.162227,-8.741164, 0.
514,26.790227,-8.741164, 0.
515,27.418227,-8.741164, 0.
516,24.906227,-9.369164, 0.
517,25.534227,-9.369164, 0.
518,26.162227,-9.369164, 0.
519,26.790227,-9.369164, 0.
520,27.418227,-9.369164, 0.
521,24.906227,-9.997164, 0.
522,25.534227,-9.997164, 0.
523,26.162227,-9.997164, 0.
524,26.790227,-9.997164, 0.
525,27.418227,-9.997164, 0.
526,-1.256,-11.833755, 0.
527,-0.628,-11.833755, 0.
528,0.0,-11.833755, 0.
529,0.6279999999999999,-11.833755, 0.
530,1.256,-11.833755, 0.
531,-1.256,-12.461755, 0.
532,-0.628,-12.461755, 0.
533,0.0,-12.461755, 0.
534,0.6279999999999999,-12.461755, 0.
535,1.256,-12.461755, 0.
536,-1.256,-13.089755, 0.
537,-0.628,-13.089755, 0.
538,0.0,-13.089755, 0.
539,0.6279999999999999,-13.089755, 0.
540,1.256,-13.089755, 0.
541,-1.256,-13.717755, 0.
542,-0.628,-13.717755, 0.
543,0.0,-13.717755, 0.
544,0.6279999999999999,-13.717755, 0.
545,1.256,-13.717755, 0.
546,-1.256,-14.345755, 0.
547,-0.628,-14.345755, 0.
548,0.0,-14.345755, 0.
549,0.6279999999999999,-14.345755, 0.
550,1.256,-14.345755, 0.
551,3.06339,-11.833755, 0.
552,3.69139,-11.833755, 0.
553,4.31939,-11.833755, 0.
554,4.94739,-11.833755, 0.
555,5.5753900000000005,-11.833755, 0.
556,3.06339,-12.461755, 0.
557,3.69139,-12.461755, 0.
558,4.31939,-12.461755, 0.
559,4.94739,-12.461755, 0.
560,5.5753900000000005,-12.461755, 0.
561,3.06339,-13.089755, 0.
562,3.69139,-13.089755, 0.
563,4.31939,-13.089755, 0.
564,4.94739,-13.089755, 0.
565,5.5753900000000005,-13.089755, 0.
566,3.06339,-13.717755, 0.
567,3.69139,-13.717755, 0.
568,4.31939,-13.717755, 0.
569,4.94739,-13.717755, 0.
570,5.5753900000000005,-13.717755, 0.
571,3.06339,-14.345755, 0.
572,3.69139,-14.345755, 0.
573,4.31939,-14.345755, 0.
574,4.94739,-14.345755, 0.
575,5.5753900000000005,-14.345755, 0.
576,7.41067,-11.833755, 0.
577,8.03867,-11.833755, 0.
578,8.66667,-11.833755, 0.
579,9.29467,-11.833755, 0.
580,9.92267,-11.833755, 0.
581,7.41067,-12.461755, 0.
582,8.03867,-12.461755, 0.
583,8.66667,-12.461755, 0.
584,9.29467,-12.461755, 0.
585,9.92267,-12.461755, 0.
586,7.41067,-13.089755, 0.
587,8.03867,-13.089755, 0.
588,8.66667,-13.089755, 0.
589,9.29467,-13.089755, 0.
590,9.92267,-13.089755, 0.
591,7.41067,-13.717755, 0.
592,8.03867,-13.717755, 0.
593,8.66667,-13.717755, 0.
594,9.29467,-13.717755, 0.
595,9.92267,-13.717755, 0.
596,7.41067,-14.345755, 0.
597,8.03867,-14.345755, 0.
598,8.66667,-14.345755, 0.
599,9.29467,-14.345755, 0.
600,9.92267,-14.345755, 0.
601,11.818022,-11.833755, 0.
602,12.446022,-11.833755, 0.
603,13.074022,-11.833755, 0.
604,13.702022,-11.833755, 0.
605,14.330022,-11.833755, 0.
606,11.818022,-12.461755, 0.
607,12.446022,-12.461755, 0.
608,13.074022,-12.461755, 0.
609,13.702022,-12.461755, 0.
610,14.330022,-12.461755, 0.
611,11.818022,-13.089755, 0.
612,12.446022,-13.089755, 0.
613,13.074022,-13.089755, 0.
614,13.702022,-13.089755, 0.
615,14.330022,-13.089755, 0.
616,11.818022,-13.717755, 0.
617,12.446022,-13.717755, 0.
618,13.074022,-13.717755, 0.
619,13.702022,-13.717755, 0.
620,14.330022,-13.717755, 0.
621,11.818022,-14.345755, 0.
622,12.446022,-14.345755, 0.
623,13.074022,-14.345755, 0.
624,13.702022,-14.345755, 0.
625,14.330022,-14.345755, 0.
626,16.230021999999998,-11.833755, 0.
627,16.858022,-11.833755, 0.
628,17.486022,-11.833755, 0.
629,18.114022,-11.833755, 0.
630,18.742022,-11.833755, 0.
631,16.230021999999998,-12.461755, 0.
632,16.858022,-12.461755, 0.
633,17.486022,-12.461755, 0.
634,18.114022,-12.461755, 0.
635,18.742022,-12.461755, 0.
636,16.230021999999998,-13.089755, 0.
637,16.858022,-13.089755, 0.
638,17.486022,-13.089755, 0.
639,18.114022,-13.089755, 0.
640,18.742022,-13.089755, 0.
641,16.230021999999998,-13.717755, 0.
642,16.858022,-13.717755, 0.
643,17.486022,-13.717755, 0.
644,18.114022,-13.717755, 0.
645,18.742022,-13.717755, 0.
646,16.230021999999998,-14.345755, 0.
647,16.858022,-14.345755, 0.
648,17.486022,-14.345755, 0.
649,18.114022,-14.345755, 0.
650,18.742022,-14.345755, 0.
651,20.594227,-11.833755, 0.
652,21.222227,-11.833755, 0.
653,21.850227,-11.833755, 0.
654,22.478227,-11.833755, 0.
655,23.106227,-11.833755, 0.
656,20.594227,-12.461755, 0.
657,21.222227,-12.461755, 0.
658,21.850227,-12.461755, 0.
659,22.478227,-12.461755, 0.
660,23.106227,-12.461755, 0.
661,20.594227,-13.089755, 0.
662,21.222227,-13.089755, 0.
663,21.850227,-13.089755, 0.
664,22.478227,-13.089755, 0.
665,23.106227,-13.089755, 0.
666,20.594227,-13.717755, 0.
667,21.222227,-13.717755, 0.
668,21.850227,-13.717755, 0.
669,22.478227,-13.717755, 0.
670,23.106227,-13.717755, 0.
671,20.594227,-14.345755, 0.
672,21.222227,-14.345755, 0.
673,21.850227,-14.345755, 0.
674,22.478227,-14.345755, 0.
675,23.106227,-14.345755, 0.
676,24.906227,-11.833755, 0.
677,25.534227,-11.833755, 0.
678,26.162227,-11.833755, 0.
679,26.790227,-11.833755, 0.
680,27.418227,-11.833755, 0.
681,24.906227,-12.461755, 0.
682,25.534227,-12.461755, 0.
683,26.162227,-12.461755, 0.
684,26.790227,-12.461755, 0.
685,27.418227,-12.461755, 0.
686,24.906227,-13.089755, 0.
687,25.534227,-13.089755, 0.
688,26.162227,-13.089755, 0.
689,26.790227,-13.089755, 0.
690,27.418227,-13.089755, 0.
691,24.906227,-13.717755, 0.
692,25.534227,-13.717755, 0.
693,26.162227,-13.717755, 0.
694,26.790227,-13.717755, 0.
695,27.418227,-13.717755, 0.
696,24.906227,-14.345755, 0.
697,25.534227,-14.345755, 0.
698,26.162227,-14.345755, 0.
699,26.790227,-14.345755, 0.
700,27.418227,-14.345755, 0.
701,-1.256,-16.200582, 0.
702,-0.628,-16.200582, 0.
703,0.0,-16.200582, 0.
704,0.6279999999999999,-16.200582, 0.
705,1.256,-16.200582, 0.
706,-1.256,-16.828582, 0.
707,-0.628,-16.828582, 0.
708,0.0,-16.828582, 0.
709,0.6279999999999999,-16.828582, 0.
710,1.256,-16.828582, 0.
711,-1.256,-17.456582, 0.
712,-0.628,-17.456582, 0.
713,0.0,-17.456582, 0.
714,0.6279999999999999,-17.456582, 0.
715,1.256,-17.456582, 0.
716,-1.256,-18.084582, 0.
717,-0.628,-18.084582, 0.
718,0.0,-18.084582, 0.
719,0.6279999999999999,-18.084582, 0.
720,1.256,-18.084582, 0.
721,-1.256,-18.712582, 0.
722,-0.628,-18.712582, 0.
723,0.0,-18.712582, 0.
724,0.6279999999999999,-18.712582, 0.
725,1.256,-18.712582, 0.
726,3.06339,-16.200582, 0.
727,3.69139,-16.200582, 0.
728,4.31939,-16.200582, 0.
729,4.94739,-16.200582, 0.
730,5.5753900000000005,-16.200582, 0.
731,3.06339,-16.828582, 0.
732,3.69139,-16.828582, 0.
733,4.31939,-16.828582, 0.
734,4.94739,-16.828582, 0.
735,5.5753900000000005,-16.828582, 0.
736,3.06339,-17.456582, 0.
737,3.69139,-17.456582, 0.
738,4.31939,-17.456582, 0.
739,4.94739,-17.456582, 0.
740,5.5753900000000005,-17.456582, 0.
741,3.06339,-18.084582, 0.
742,3.69139,-18.084582, 0.
743,4.31939,-18.084582, 0.
744,4.94739,-18.084582, 0.
745,5.5753900000000005,-18.084582, 0.
746,3.06339,-18.712582, 0.
747,3.69139,-18.712582, 0.
748,4.31939,-18.712582, 0.
749,4.94739,-18.712582, 0.
750,5.5753900000000005,-18.712582, 0.
751,7.41067,-16.200582, 0.
752,8.03867,-16.200582, 0.
753,8.66667,-16.200582, 0.
754,9.29467,-16.200582, 0.
755,9.92267,-16.200582, 0.
756,7.41067,-16.828582, 0.
757,8.03867,-16.828582, 0.
758,8.66667,-16.828582, 0.
759,9.29467,-16.828582, 0.
760,9.92267,-16.828582, 0.
761,7.41067,-17.456582, 0.
762,8.03867,-17.456582, 0.
763,8.66667,-17.456582, 0.
764,9.29467,-17.456582, 0.
765,9.92267,-17.456582, 0.
766,7.41067,-18.084582, 0.
767,8.03867,-18.084582, 0.
768,8.66667,-18.084582, 0.
769,9.29467,-18.084582, 0.
770,9.92267,-18.084582, 0.
771,7.41067,-18.712582, 0.
772,8.03867,-18.712582, 0.
773,8.66667,-18.712582, 0.
774,9.29467,-18.712582, 0.
775,9.92267,-18.712582, 0.
776,11.818022,-16.200582, 0.
777,12.446022,-16.200582, 0.
778,13.074022,-16.200582, 0.
779,13.702022,-16.200582, 0.
780,14.330022,-16.200582, 0.
781,11.818022,-16.828582, 0.
782,12.446022,-16.828582, 0.
783,13.074022,-16.828582, 0.
784,13.702022,-16.828582, 0.
785,14.330022,-16.828582, 0.
786,11.818022,-17.456582, 0.
787,12.446022,-17.456582, 0.
788,13.074022,-17.456582, 0.
789,13.702022,-17.456582, 0.
790,14.330022,-17.456582, 0.
791,11.818022,-18.084582, 0.
792,12.446022,-18.084582, 0.
793,13.074022,-18.084582, 0.
794,13.702022,-18.084582, 0.
795,14.330022,-18.084582, 0.
796,11.818022,-18.712582, 0.
797,12.446022,-18.712582, 0.
798,13.074022,-18.712582, 0.
799,13.702022,-18.712582, 0.
800,14.330022,-18.712582, 0.
801,16.230021999999998,-16.200582, 0.
802,16.858022,-16.200582, 0.
803,17.486022,-16.200582, 0.
804,18.114022,-16.200582, 0.
805,18.742022,-16.200582, 0.
806,16.230021999999998,-16.828582, 0.
807,16.858022,-16.828582, 0.
808,17.486022,-16.828582, 0.
809,18.114022,-16.828582, 0.
810,18.742022,-16.828582, 0.
811,16.230021999999998,-17.456582, 0.
812,16.858022,-17.456582, 0.
813,17.486022,-17.456582, 0.
814,18.114022,-17.456582, 0.
815,18.742022,-17.456582, 0.
816,16.230021999999998,-18.084582, 0.
817,16.858022,-18.084582, 0.
818,17.486022,-18.084582, 0.
819,18.114022,-18.084582, 0.
820,18.742022,-18.084582, 0.
821,16.230021999999998,-18.712582, 0.
822,16.858022,-18.712582, 0.
823,17.486022,-18.712582, 0.
824,18.114022,-18.712582, 0.
825,18.742022,-18.712582, 0.
826,20.594227,-16.200582, 0.
827,21.222227,-16.200582, 0.
828,21.850227,-16.200582, 0.
829,22.478227,-16.200582, 0.
830,23.106227,-16.200582, 0.
831,20.594227,-16.828582, 0.
832,21.222227,-16.828582, 0.
833,21.850227,-16.828582, 0.
834,22.478227,-16.828582, 0.
835,23.106227,-16.828582, 0.
836,20.594227,-17.456582, 0.
837,21.222227,-17.456582, 0.
838,21.850227,-17.456582, 0.
839,22.478227,-17.456582, 0.
840,23.106227,-17.456582, 0.
841,20.594227,-18.084582, 0.
842,21.222227,-18.084582, 0.
843,21.850227,-18.084582, 0.
844,22.478227,-18.084582, 0.
845,23.106227,-18.084582, 0.
846,20.594227,-18.712582, 0.
847,21.222227,-18.712582, 0.
848,21.850227,-18.712582, 0.
849,22.478227,-18.712582, 0.
850,23.106227,-18.712582, 0.
851,24.906227,-16.200582, 0.
852,25.534227,-16.200582, 0.
853,26.162227,-16.200582, 0.
854,26.790227,-16.200582, 0.
855,27.418227,-16.200582, 0.
856,24.906227,-16.828582, 0.
857,25.534227,-16.828582, 0.
858,26.162227,-16.828582, 0.
859,26.790227,-16.828582, 0.
860,27.418227,-16.828582, 0.
861,24.906227,-17.456582, 0.
862,25.534227,-17.456582, 0.
863,26.162227,-17.456582, 0.
864,26.790227,-17.456582, 0.
865,27.418227,-17.456582, 0.
866,24.906227,-18.084582, 0.
867,25.534227,-18.084582, 0.
868,26.162227,-18.084582, 0.
869,26.790227,-18.084582, 0.
870,27.418227,-18.084582, 0.
871,24.906227,-18.712582, 0.
872,25.534227,-18.712582, 0.
873,26.162227,-18.712582, 0.
874,26.790227,-18.712582, 0.
875,27.418227,-18.712582, 0.
876,-1.256,-20.569077999999998, 0.
877,-0.628,-20.569077999999998, 0.
878,0.0,-20.569077999999998, 0.
879,0.6279999999999999,-20.569077999999998, 0.
880,1.256,-20.569077999999998, 0.
881,-1.256,-21.197077999999998, 0.
882,-0.628,-21.197077999999998, 0.
883,0.0,-21.197077999999998, 0.
884,0.6279999999999999,-21.197077999999998, 0.
885,1.256,-21.197077999999998, 0.
886,-1.256,-21.825077999999998, 0.
887,-0.628,-21.825077999999998, 0.
888,0.0,-21.825077999999998, 0.
889,0.6279999999999999,-21.825077999999998, 0.
890,1.256,-21.825077999999998, 0.
891,-1.256,-22.453077999999998, 0.
892,-0.628,-22.453077999999998, 0.
893,0.0,-22.453077999999998, 0.
894,0.6279999999999999,-22.453077999999998, 0.
895,1.256,-22.453077999999998, 0.
896,-1.256,-23.081077999999998, 0.
897,-0.628,-23.081077999999998, 0.
898,0.0,-23.081077999999998, 0.
899,0.6279999999999999,-23.081077999999998, 0.
900,1.256,-23.081077999999998, 0.
901,3.06339,-20.569077999999998, 0.
902,3.69139,-20.569077999999998, 0.
903,4.31939,-20.569077999999998, 0.
904,4.94739,-20.569077999999998, 0.
905,5.5753900000000005,-20.569077999999998, 0.
906,3.06339,-21.197077999999998, 0.
907,3.69139,-21.197077999999998, 0.
908,4.31939,-21.197077999999998, 0.
909,4.94739,-21.197077999999998, 0.
910,5.5753900000000005,-21.197077999999998, 0.
911,3.06339,-21.825077999999998, 0.
912,3.69139,-21.825077999999998, 0.
913,4.31939,-21.825077999999998, 0.
914,4.94739,-21.825077999999998, 0.
915,5.5753900000000005,-21.825077999999998, 0.
916,3.06339,-22.453077999999998, 0.
917,3.69139,-22.453077999999998, 0.
918,4.31939,-22.453077999999998, 0.
919,4.94739,-22.453077999999998, 0.
920,5.5753900000000005,-22.453077999999998, 0.
921,3.06339,-23.081077999999998, 0.
922,3.69139,-23.081077999999998, 0.
923,4.31939,-23.081077999999998, 0.
924,4.94739,-23.081077999999998, 0.
925,5.5753900000000005,-23.081077999999998, 0.
926,7.41067,-20.569077999999998, 0.
927,8.03867,-20.569077999999998, 0.
928,8.66667,-20.569077999999998, 0.
929,9.29467,-20.569077999999998, 0.
930,9.92267,-20.569077999999998, 0.
931,7.41067,-21.197077999999998, 0.
932,8.03867,-21.197077999999998, 0.
933,8.66667,-21.197077999999998, 0.
934,9.29467,-21.197077999999998, 0.
935,9.92267,-21.197077999999998, 0.
936,7.41067,-21.825077999999998, 0.
937,8.03867,-21.825077999999998, 0.
938,8.66667,-21.825077999999998, 0.
939,9.29467,-21.825077999999998, 0.
940,9.92267,-21.825077999999998, 0.
941,7.41067,-22.453077999999998, 0.
942,8.03867,-22.453077999999998, 0.
943,8.66667,-22.453077999999998, 0.
944,9.29467,-22.453077999999998, 0.
945,9.92267,-22.453077999999998, 0.
946,7.41067,-23.081077999999998, 0.
947,8.03867,-23.081077999999998, 0.
948,8.66667,-23.081077999999998, 0.
949,9.29467,-23.081077999999998, 0.
950,9.92267,-23.081077999999998, 0.
951,11.818022,-20.569077999999998, 0.
952,12.446022,-20.569077999999998, 0.
953,13.074022,-20.569077999999998, 0.
954,13.702022,-20.569077999999998, 0.
955,14.330022,-20.569077999999998, 0.
956,11.818022,-21.197077999999998, 0.
957,12.446022,-21.197077999999998, 0.
958,13.074022,-21.197077999999998, 0.
959,13.702022,-21.197077999999998, 0.
960,14.330022,-21.197077999999998, 0.
961,11.818022,-21.825077999999998, 0.
962,12.446022,-21.825077999999998, 0.
963,13.074022,-21.825077999999998, 0.
964,13.702022,-21.825077999999998, 0.
965,14.330022,-21.825077999999998, 0.
966,11.818022,-22.453077999999998, 0.
967,12.446022,-22.453077999999998, 0.
968,13.074022,-22.453077999999998, 0.
969,13.702022,-22.453077999999998, 0.
970,14.330022,-22.453077999999998, 0.
971,11.818022,-23.081077999999998, 0.
972,12.446022,-23.081077999999998, 0.
973,13.074022,-23.081077999999998, 0.
974,13.702022,-23.081077999999998, 0.
975,14.330022,-23.081077999999998, 0.
976,16.230021999999998,-20.569077999999998, 0.
977,16.858022,-20.569077999999998, 0.
978,17.486022,-20.569077999999998, 0.
979,18.114022,-20.569077999999998, 0.
980,18.742022,-20.569077999999998, 0.
981,16.230021999999998,-21.197077999999998, 0.
982,16.858022,-21.197077999999998, 0.
983,17.486022,-21.197077999999998, 0.
984,18.114022,-21.197077999999998, 0.
985,18.742022,-21.197077999999998, 0.
986,16.230021999999998,-21.825077999999998, 0.
987,16.858022,-21.825077999999998, 0.
988,17.486022,-21.825077999999998, 0.
989,18.114022,-21.825077999999998, 0.
990,18.742022,-21.825077999999998, 0.
991,16.230021999999998,-22.453077999999998, 0.
992,16.858022,-22.453077999999998, 0.
993,17.486022,-22.453077999999998, 0.
994,18.114022,-22.453077999999998, 0.
995,18.742022,-22.453077999999998, 0.
996,16.230021999999998,-23.081077999999998, 0.
997,16.858022,-23.081077999999998, 0.
998,17.486022,-23.081077999999998, 0.
999,18.114022,-23.081077999999998, 0.
1000,18.742022,-23.081077999999998, 0.
1001,20.594227,-20.569077999999998, 0.
1002,21.222227,-20.569077999999998, 0.
1003,21.850227,-20.569077999999998, 0.
1004,22.478227,-20.569077999999998, 0.
1005,23.106227,-20.569077999999998, 0.
1006,20.594227,-21.197077999999998, 0.
1007,21.222227,-21.197077999999998, 0.
1008,21.850227,-21.197077999999998, 0.
1009,22.478227,-21.197077999999998, 0.
1010,23.106227,-21.197077999999998, 0.
1011,20.594227,-21.825077999999998, 0.
1012,21.222227,-21.825077999999998, 0.
1013,21.850227,-21.825077999999998, 0.
1014,22.478227,-21.825077999999998, 0.
1015,23.106227,-21.825077999999998, 0.
1016,20.594227,-22.453077999999998, 0.
1017,21.222227,-22.453077999999998, 0.
1018,21.850227,-22.453077999999998, 0.
1019,22.478227,-22.453077999999998, 0.
1020,23.106227,-22.453077999999998, 0.
1021,20.594227,-23.081077999999998, 0.
1022,21.222227,-23.081077999999998, 0.
1023,21.850227,-23.081077999999998, 0.
1024,22.478227,-23.081077999999998, 0.
1025,23.106227,-23.081077999999998, 0.
1026,24.906227,-20.569077999999998, 0.
1027,25.534227,-20.569077999999998, 0.
1028,26.162227,-20.569077999999998, 0.
1029,26.790227,-20.569077999999998, 0.
1030,27.418227,-20.569077999999998, 0.
1031,24.906227,-21.197077999999998, 0.
1032,25.534227,-21.197077999999998, 0.
1033,26.162227,-21.197077999999998, 0.
1034,26.790227,-21.197077999999998, 0.
1035,27.418227,-21.197077999999998, 0.
1036,24.906227,-21.825077999999998, 0.
1037,25.534227,-21.825077999999998, 0.
1038,26.162227,-21.825077999999998, 0.
1039,26.790227,-21.825077999999998, 0.
1040,27.418227,-21.825077999999998, 0.
1041,24.906227,-22.453077999999998, 0.
1042,25.534227,-22.453077999999998, 0.
1043,26.162227,-22.453077999999998, 0.
1044,26.790227,-22.453077999999998, 0.
1045,27.418227,-22.453077999999998, 0.
1046,24.906227,-23.081077999999998, 0.
1047,25.534227,-23.081077999999998, 0.
1048,26.162227,-23.081077999999998, 0.
1049,26.790227,-23.081077999999998, 0.
1050,27.418227,-23.081077999999998, 0.
1051,-1.256,-24.925535999999997, 0.
1052,-0.628,-24.925535999999997, 0.
1053,0.0,-24.925535999999997, 0.
1054,0.6279999999999999,-24.925535999999997, 0.
1055,1.256,-24.925535999999997, 0.
1056,-1.256,-25.553535999999998, 0.
1057,-0.628,-25.553535999999998, 0.
1058,0.0,-25.553535999999998, 0.
1059,0.6279999999999999,-25.553535999999998, 0.
1060,1.256,-25.553535999999998, 0.
1061,-1.256,-26.181535999999998, 0.
1062,-0.628,-26.181535999999998, 0.
1063,0.0,-26.181535999999998, 0.
1064,0.6279999999999999,-26.181535999999998, 0.
1065,1.256,-26.181535999999998, 0.
1066,-1.256,-26.809535999999998, 0.
1067,-0.628,-26.809535999999998, 0.
1068,0.0,-26.809535999999998, 0.
1069,0.6279999999999999,-26.809535999999998, 0.
1070,1.256,-26.809535999999998, 0.
1071,-1.256,-27.437535999999998, 0.
1072,-0.628,-27.437535999999998, 0.
1073,0.0,-27.437535999999998, 0.
1074,0.6279999999999999,-27.437535999999998, 0.
1075,1.256,-27.437535999999998, 0.
1076,3.06339,-24.925535999999997, 0.
1077,3.69139,-24.925535999999997, 0.
1078,4.31939,-24.925535999999997, 0.
1079,4.94739,-24.925535999999997, 0.
1080,5.5753900000000005,-24.925535999999997, 0.
1081,3.06339,-25.553535999999998, 0.
1082,3.69139,-25.553535999999998, 0.
1083,4.31939,-25.553535999999998, 0.
1084,4.94739,-25.553535999999998, 0.
1085,5.5753900000000005,-25.553535999999998, 0.
1086,3.06339,-26.181535999999998, 0.
1087,3.69139,-26.181535999999998, 0.
1088,4.31939,-26.181535999999998, 0.
1089,4.94739,-26.181535999999998, 0.
1090,5.5753900000000005,-26.181535999999998, 0.
1091,3.06339,-26.809535999999998, 0.
1092,3.69139,-26.809535999999998, 0.
1093,4.31939,-26.809535999999998, 0.
1094,4.94739,-26.809535999999998, 0.
1095,5.5753900000000005,-26.809535999999998, 0.
1096,3.06339,-27.437535999999998, 0.
1097,3.69139,-27.437535999999998, 0.
1098,4.31939,-27.437535999999998, 0.
1099,4.94739,-27.437535999999998, 0.
1100,5.5753900000000005,-27.437535999999998, 0.
1101,7.41067,-24.925535999999997, 0.
1102,8.03867,-24.925535999999997, 0.
1103,8.66667,-24.925535999999997, 0.
1104,9.29467,-24.925535999999997, 0.
1105,9.92267,-24.925535999999997, 0.
1106,7.41067,-25.553535999999998, 0.
1107,8.03867,-25.553535999999998, 0.
1108,8.66667,-25.553535999999998, 0.
1109,9.29467,-25.553535999999998, 0.
1110,9.92267,-25.553535999999998, 0.
1111,7.41067,-26.181535999999998, 0.
1112,8.03867,-26.181535999999998, 0.
1113,8.66667,-26.181535999999998, 0.
1114,9.29467,-26.181535999999998, 0.
1115,9.92267,-26.181535999999998, 0.
1116,7.41067,-26.809535999999998, 0.
1117,8.03867,-26.809535999999998, 0.
1118,8.66667,-26.809535999999998, 0.
1119,9.29467,-26.809535999999998, 0.
1120,9.92267,-26.809535999999998, 0.
1121,7.41067,-27.437535999999998, 0.
1122,8.03867,-27.437535999999998, 0.
1123,8.66667,-27.437535999999998, 0.
1124,9.29467,-27.437535999999998, 0.
1125,9.92267,-27.437535999999998, 0.
1126,11.818022,-24.925535999999997, 0.
1127,12.446022,-24.925535999999997, 0.
1128,13.074022,-24.925535999999997, 0.
1129,13.702022,-24.925535999999997, 0.
1130,14.330022,-24.925535999999997, 0.
1131,11.818022,-25.553535999999998, 0.
1132,12.446022,-25.553535999999998, 0.
1133,13.074022,-25.553535999999998, 0.
1134,13.702022,-25.553535999999998, 0.
1135,14.330022,-25.553535999999998, 0.
1136,11.818022,-26.181535999999998, 0.
1137,12.446022,-26.181535999999998, 0.
1138,13.074022,-26.181535999999998, 0.
1139,13.702022,-26.181535999999998, 0.
1140,14.330022,-26.181535999999998, 0.
1141,11.818022,-26.809535999999998, 0.
1142,12.446022,-26.809535999999998, 0.
1143,13.074022,-26.809535999999998, 0.
1144,13.702022,-26.809535999999998, 0.
1145,14.330022,-26.809535999999998, 0.
1146,11.818022,-27.437535999999998, 0.
1147,12.446022,-27.437535999999998, 0.
1148,13.074022,-27.437535999999998, 0.
1149,13.702022,-27.437535999999998, 0.
1150,14.330022,-27.437535999999998, 0.
1151,16.230021999999998,-24.925535999999997, 0.
1152,16.858022,-24.925535999999997, 0.
1153,17.486022,-24.925535999999997, 0.
1154,18.114022,-24.925535999999997, 0.
1155,18.742022,-24.925535999999997, 0.
1156,16.230021999999998,-25.553535999999998, 0.
1157,16.858022,-25.553535999999998, 0.
1158,17.486022,-25.553535999999998, 0.
1159,18.114022,-25.553535999999998, 0.
1160,18.742022,-25.553535999999998, 0.
1161,16.230021999999998,-26.181535999999998, 0.
1162,16.858022,-26.181535999999998, 0.
1163,17.486022,-26.181535999999998, 0.
1164,18.114022,-26.181535999999998, 0.
1165,18.742022,-26.181535999999998, 0.
1166,16.230021999999998,-26.809535999999998, 0.
1167,16.858022,-26.809535999999998, 0.
1168,17.486022,-26.809535999999998, 0.
1169,18.114022,-26.809535999999998, 0.
1170,18.742022,-26.809535999999998, 0.
1171,16.230021999999998,-27.437535999999998, 0.
1172,16.858022,-27.437535999999998, 0.
1173,17.486022,-27.437535999999998, 0.
1174,18.114022,-27.437535999999998, 0.
1175,18.742022,-27.437535999999998, 0.
1176,20.594227,-24.925535999999997, 0.
1177,21.222227,-24.925535999999997, 0.
1178,21.850227,-24.925535999999997, 0.
1179,22.478227,-24.925535999999997, 0.
1180,23.106227,-24.925535999999997, 0.
1181,20.594227,-25.553535999999998, 0.
1182,21.222227,-25.553535999999998, 0.
1183,21.850227,-25.553535999999998, 0.
1184,22.478227,-25.553535999999998, 0.
1185,23.106227,-25.553535999999998, 0.
1186,20.594227,-26.181535999999998, 0.
1187,21.222227,-26.181535999999998, 0.
1188,21.850227,-26.181535999999998, 0.
1189,22.478227,-26.181535999999998, 0.
1190,23.106227,-26.181535999999998, 0.
1191,20.594227,-26.809535999999998, 0.
1192,21.222227,-26.809535999999998, 0.
1193,21.850227,-26.809535999999998, 0.
1194,22.478227,-26.809535999999998, 0.
1195,23.106227,-26.809535999999998, 0.
1196,20.594227,-27.437535999999998, 0.
1197,21.222227,-27.437535999999998, 0.
1198,21.850227,-27.437535999999998, 0.
1199,22.478227,-27.437535999999998, 0.
1200,23.106227,-27.437535999999998, 0.
1201,24.906227,-24.925535999999997, 0.
1202,25.534227,-24.925535999999997, 0.
1203,26.162227,-24.925535999999997, 0.
1204,26.790227,-24.925535999999997, 0.
1205,27.418227,-24.925535999999997, 0.
1206,24.906227,-25.553535999999998, 0.
1207,25.534227,-25.553535999999998, 0.
1208,26.162227,-25.553535999999998, 0.
1209,26.790227,-25.553535999999998, 0.
1210,27.418227,-25.553535999999998, 0.
1211,24.906227,-26.181535999999998, 0.
1212,25.534227,-26.181535999999998, 0.
1213,26.162227,-26.181535999999998, 0.
1214,26.790227,-26.181535999999998, 0.
1215,27.418227,-26.181535999999998, 0.
1216,24.906227,-26.809535999999998, 0.
1217,25.534227,-26.809535999999998, 0.
1218,26.162227,-26.809535999999998, 0.
1219,26.790227,-26.809535999999998, 0.
1220,27.418227,-26.809535999999998, 0.
1221,24.906227,-27.437535999999998, 0.
1222,25.534227,-27.437535999999998, 0.
1223,26.162227,-27.437535999999998, 0.
1224,26.790227,-27.437535999999998, 0.
1225,27.418227,-27.437535999999998, 0.
1226,-1.256,-29.307738999999998, 0.
1227,-0.628,-29.307738999999998, 0.
1228,0.0,-29.307738999999998, 0.
1229,0.6279999999999999,-29.307738999999998, 0.
1230,1.256,-29.307738999999998, 0.
1231,-1.256,-29.935738999999998, 0.
1232,-0.628,-29.935738999999998, 0.
1233,0.0,-29.935738999999998, 0.
1234,0.6279999999999999,-29.935738999999998, 0.
1235,1.256,-29.935738999999998, 0.
1236,-1.256,-30.563738999999998, 0.
1237,-0.628,-30.563738999999998, 0.
1238,0.0,-30.563738999999998, 0.
1239,0.6279999999999999,-30.563738999999998, 0.
1240,1.256,-30.563738999999998, 0.
1241,-1.256,-31.191739, 0.
1242,-0.628,-31.191739, 0.
1243,0.0,-31.191739, 0.
1244,0.6279999999999999,-31.191739, 0.
1245,1.256,-31.191739, 0.
1246,-1.256,-31.819739, 0.
1247,-0.628,-31.819739, 0.
1248,0.0,-31.819739, 0.
1249,0.6279999999999999,-31.819739, 0.
1250,1.256,-31.819739, 0.
1251,3.06339,-29.307738999999998, 0.
1252,3.69139,-29.307738999999998, 0.
1253,4.31939,-29.307738999999998, 0.
1254,4.94739,-29.307738999999998, 0.
1255,5.5753900000000005,-29.307738999999998, 0.
1256,3.06339,-29.935738999999998, 0.
1257,3.69139,-29.935738999999998, 0.
1258,4.31939,-29.935738999999998, 0.
1259,4.94739,-29.935738999999998, 0.
1260,5.5753900000000005,-29.935738999999998, 0.
1261,3.06339,-30.563738999999998, 0.
1262,3.69139,-30.563738999999998, 0.
1263,4.31939,-30.563738999999998, 0.
1264,4.94739,-30.563738999999998, 0.
1265,5.5753900000000005,-30.563738999999998, 0.
1266,3.06339,-31.191739, 0.
1267,3.69139,-31.191739, 0.
1268,4.31939,-31.191739, 0.
1269,4.94739,-31.191739, 0.
1270,5.5753900000000005,-31.191739, 0.
1271,3.06339,-31.819739, 0.
1272,3.69139,-31.819739, 0.
1273,4.31939,-31.819739, 0.
1274,4.94739,-31.819739, 0.
1275,5.5753900000000005,-31.819739, 0.
1276,7.41067,-29.307738999999998, 0.
1277,8.03867,-29.307738999999998, 0.
1278,8.66667,-29.307738999999998, 0.
1279,9.29467,-29.307738999999998, 0.
1280,9.92267,-29.307738999999998, 0.
1281,7.41067,-29.935738999999998, 0.
1282,8.03867,-29.935738999999998, 0.
1283,8.66667,-29.935738999999998, 0.
1284,9.29467,-29.935738999999998, 0.
1285,9.92267,-29.935738999999998, 0.
1286,7.41067,-30.563738999999998, 0.
1287,8.03867,-30.563738999999998, 0.
1288,8.66667,-30.563738999999998, 0.
1289,9.29467,-30.563738999999998, 0.
1290,9.92267,-30.563738999999998, 0.
1291,7.41067,-31.191739, 0.
1292,8.03867,-31.191739, 0.
1293,8.66667,-31.191739, 0.
1294,9.29467,-31.191739, 0.
1295,9.92267,-31.191739, 0.
1296,7.41067,-31.819739, 0.
1297,8.03867,-31.819739, 0.
1298,8.66667,-31.819739, 0.
1299,9.29467,-31.819739, 0.
1300,9.92267,-31.819739, 0.
1301,11.818022,-29.307738999999998, 0.
1302,12.446022,-29.307738999999998, 0.
1303,13.074022,-29.307738999999998, 0.
1304,13.702022,-29.307738999999998, 0.
1305,14.330022,-29.307738999999998, 0.
1306,11.818022,-29.935738999999998, 0.
1307,12.446022,-29.935738999999998, 0.
1308,13.074022,-29.935738999999998, 0.
1309,13.702022,-29.935738999999998, 0.
1310,14.330022,-29.935738999999998, 0.
1311,11.818022,-30.563738999999998, 0.
1312,12.446022,-30.563738999999998, 0.
1313,13.074022,-30.563738999999998, 0.
1314,13.702022,-30.563738999999998, 0.
1315,14.330022,-30.563738999999998, 0.
1316,11.818022,-31.191739, 0.
1317,12.446022,-31.191739, 0.
1318,13.074022,-31.191739, 0.
1319,13.702022,-31.191739, 0.
1320,14.330022,-31.191739, 0.
1321,11.818022,-31.819739, 0.
1322,12.446022,-31.819739, 0.
1323,13.074022,-31.819739, 0.
1324,13.702022,-31.819739, 0.
1325,14.330022,-31.819739, 0.
1326,16.230021999999998,-29.307738999999998, 0.
1327,16.858022,-29.307738999999998, 0.
1328,17.486022,-29.307738999999998, 0.
1329,18.114022,-29.307738999999998, 0.
1330,18.742022,-29.307738999999998, 0.
1331,16.230021999999998,-29.935738999999998, 0.
1332,16.858022,-29.935738999999998, 0.
1333,17.486022,-29.935738999999998, 0.
1334,18.114022,-29.935738999999998, 0.
1335,18.742022,-29.935738999999998, 0.
1336,16.230021999999998,-30.563738999999998, 0.
1337,16.858022,-30.563738999999998, 0.
1338,17.486022,-30.563738999999998, 0.
1339,18.114022,-30.563738999999998, 0.
1340,18.742022,-30.563738999999998, 0.
1341,16.230021999999998,-31.191739, 0.
1342,16.858022,-31.191739, 0.
1343,17.486022,-31.191739, 0.
1344,18.114022,-31.191739, 0.
1345,18.742022,-31.191739, 0.
1346,16.230021999999998,-31.819739, 0.
1347,16.858022,-31.819739, 0.
1348,17.486022,-31.819739, 0.
1349,18.114022,-31.819739, 0.
1350,18.742022,-31.819739, 0.
1351,20.594227,-29.307738999999998, 0.
1352,21.222227,-29.307738999999998, 0.
1353,21.850227,-29.307738999999998, 0.
1354,22.478227,-29.307738999999998, 0.
1355,23.106227,-29.307738999999998, 0.
1356,20.594227,-29.935738999999998, 0.
1357,21.222227,-29.935738999999998, 0.
1358,21.850227,-29.935738999999998, 0.
1359,22.478227,-29.935738999999998, 0.
1360,23.106227,-29.935738999999998, 0.
1361,20.594227,-30.563738999999998, 0.
1362,21.222227,-30.563738999999998, 0.
1363,21.850227,-30.563738999999998, 0.
1364,22.478227,-30.563738999999998, 0.
1365,23.106227,-30.563738999999998, 0.
1366,20.594227,-31.191739, 0.
1367,21.222227,-31.191739, 0.
1368,21.850227,-31.191739, 0.
1369,22.478227,-31.191739, 0.
1370,23.106227,-31.191739, 0.
1371,20.594227,-31.819739, 0.
1372,21.222227,-31.819739, 0.
1373,21.850227,-31.819739, 0.
1374,22.478227,-31.819739, 0.
1375,23.106227,-31.819739, 0.
1376,24.906227,-29.307738999999998, 0.
1377,25.534227,-29.307738999999998, 0.
1378,26.162227,-29.307738999999998, 0.
1379,26.790227,-29.307738999999998, 0.
1380,27.418227,-29.307738999999998, 0.
1381,24.906227,-29.935738999999998, 0.
1382,25.534227,-29.935738999999998, 0.
1383,26.162227,-29.935738999999998, 0.
1384,26.790227,-29.935738999999998, 0.
1385,27.418227,-29.935738999999998, 0.
1386,24.906227,-30.563738999999998, 0.
1387,25.534227,-30.563738999999998, 0.
1388,26.162227,-30.563738999999998, 0.
1389,26.790227,-30.563738999999998, 0.
1390,27.418227,-30.563738999999998, 0.
1391,24.906227,-31.191739, 0.
1392,25.534227,-31.191739, 0.
1393,26.162227,-31.191739, 0.
1394,26.790227,-31.191739, 0.
1395,27.418227,-31.191739, 0.
1396,24.906227,-31.819739, 0.
1397,25.534227,-31.819739, 0.
1398,26.162227,-31.819739, 0.
1399,26.790227,-31.819739, 0.
1400,27.418227,-31.819739, 0.
1401,-1.256,-33.703291, 0.
1402,-0.628,-33.703291, 0.
1403,0.0,-33.703291, 0.
1404,0.6279999999999999,-33.703291, 0.
1405,1.256,-33.703291, 0.
1406,-1.256,-34.331291, 0.
1407,-0.628,-34.331291, 0.
1408,0.0,-34.331291, 0.
1409,0.6279999999999999,-34.331291, 0.
1410,1.256,-34.331291, 0.
1411,-1.256,-34.959291, 0.
1412,-0.628,-34.959291, 0.
1413,0.0,-34.959291, 0.
1414,0.6279999999999999,-34.959291, 0.
1415,1.256,-34.959291, 0.
1416,-1.256,-35.587291, 0.
1417,-0.628,-35.587291, 0.
1418,0.0,-35.587291, 0.
1419,0.6279999999999999,-35.587291, 0.
1420,1.256,-35.587291, 0.
1421,-1.256,-36.215291, 0.
1422,-0.628,-36.215291, 0.
1423,0.0,-36.215291, 0.
1424,0.6279999999999999,-36.215291, 0.
1425,1.256,-36.215291, 0.
1426,3.06339,-33.703291, 0.
1427,3.69139,-33.703291, 0.
1428,4.31939,-33.703291, 0.
1429,4.94739,-33.703291, 0.
1430,5.5753900000000005,-33.703291, 0.
1431,3.06339,-34.331291, 0.
1432,3.69139,-34.331291, 0.
1433,4.31939,-34.331291, 0.
1434,4.94739,-34.331291, 0.
1435,5.5753900000000005,-34.331291, 0.
1436,3.06339,-34.959291, 0.
1437,3.69139,-34.959291, 0.
1438,4.31939,-34.959291, 0.
1439,4.94739,-34.959291, 0.
1440,5.5753900000000005,-34.959291, 0.
1441,3.06339,-35.587291, 0.
1442,3.69139,-35.587291, 0.
1443,4.31939,-35.587291, 0.
1444,4.94739,-35.587291, 0.
1445,5.5753900000000005,-35.587291, 0.
1446,3.06339,-36.215291, 0.
1447,3.69139,-36.215291, 0.
1448,4.31939,-36.215291, 0.
1449,4.94739,-36.215291, 0.
1450,5.5753900000000005,-36.215291, 0.
1451,7.41067,-33.703291, 0.
1452,8.03867,-33.703291, 0.
1453,8.66667,-33.703291, 0.
1454,9.29467,-33.703291, 0.
1455,9.92267,-33.703291, 0.
1456,7.41067,-34.331291, 0.
1457,8.03867,-34.331291, 0.
1458,8.66667,-34.331291, 0.
1459,9.29467,-34.331291, 0.
1460,9.92267,-34.331291, 0.
1461,7.41067,-34.959291, 0.
1462,8.03867,-34.959291, 0.
1463,8.66667,-34.959291, 0.
1464,9.29467,-34.959291, 0.
1465,9.92267,-34.959291, 0.
1466,7.41067,-35.587291, 0.
1467,8.03867,-35.587291, 0.
1468,8.66667,-35.587291, 0.
1469,9.29467,-35.587291, 0.
1470,9.92267,-35.587291, 0.
1471,7.41067,-36.215291, 0.
1472,8.03867,-36.215291, 0.
1473,8.66667,-36.215291, 0.
1474,9.29467,-36.215291, 0.
1475,9.92267,-36.215291, 0.
1476,11.818022,-33.703291, 0.
1477,12.446022,-33.703291, 0.
1478,13.074022,-33.703291, 0.
1479,13.702022,-33.703291, 0.
1480,14.330022,-33.703291, 0.
1481,11.818022,-34.331291, 0.
1482,12.446022,-34.331291, 0.
1483,13.074022,-34.331291, 0.
1484,13.702022,-34.331291, 0.
1485,14.330022,-34.331291, 0.
1486,11.818022,-34.959291, 0.
1487,12.446022,-34.959291, 0.
1488,13.074022,-34.959291, 0.
1489,13.702022,-34.959291, 0.
1490,14.330022,-34.959291, 0.
1491,11.818022,-35.587291, 0.
1492,12.446022,-35.587291, 0.
1493,13.074022,-35.587291, 0.
1494,13.702022,-35.587291, 0.
1495,14.330022,-35.587291, 0.
1496,11.818022,-36.215291, 0.
1497,12.446022,-36.215291, 0.
1498,13.074022,-36.215291, 0.
1499,13.702022,-36.215291, 0.
1500,14.330022,-36.215291, 0.
1501,16.230021999999998,-33.703291, 0.
1502,16.858022,-33.703291, 0.
1503,17.486022,-33.703291, 0.
1504,18.114022,-33.703291, 0.
1505,18.742022,-33.703291, 0.
1506,16.230021999999998,-34.331291, 0.
1507,16.858022,-34.331291, 0.
1508,17.486022,-34.331291, 0.
1509,18.114022,-34.331291, 0.
1510,18.742022,-34.331291, 0.
1511,16.230021999999998,-34.959291, 0.
1512,16.858022,-34.959291, 0.
1513,17.486022,-34.959291, 0.
1514,18.114022,-34.959291, 0.
1515,18.742022,-34.959291, 0.
1516,16.230021999999998,-35.587291, 0.
1517,16.858022,-35.587291, 0.
1518,17.486022,-35.587291, 0.
1519,18.114022,-35.587291, 0.
1520,18.742022,-35.587291, 0.
1521,16.230021999999998,-36.215291, 0.
1522,16.858022,-36.215291, 0.
1523,17.486022,-36.215291, 0.
1524,18.114022,-36.215291, 0.
1525,18.742022,-36.215291, 0.
1526,20.594227,-33.703291, 0.
1527,21.222227,-33.703291, 0.
1528,21.850227,-33.703291, 0.
1529,22.478227,-33.703291, 0.
1530,23.106227,-33.703291, 0.
1531,20.594227,-34.331291, 0.
1532,21.222227,-34.331291, 0.
1533,21.850227,-34.331291, 0.
1534,22.478227,-34.331291, 0.
1535,23.106227,-34.331291, 0.
1536,20.594227,-34.959291, 0.
1537,21.222227,-34.959291, 0.
1538,21.850227,-34.959291, 0.
1539,22.478227,-34.959291, 0.
1540,23.106227,-34.959291, 0.
1541,20.594227,-35.587291, 0.
1542,21.222227,-35.587291, 0.
1543,21.850227,-35.587291, 0.
1544,22.478227,-35.587291, 0.
1545,23.106227,-35.587291, 0.
1546,20.594227,-36.215291, 0.
1547,21.222227,-36.215291, 0.
1548,21.850227,-36.215291, 0.
1549,22.478227,-36.215291, 0.
1550,23.106227,-36.215291, 0.
1551,24.906227,-33.703291, 0.
1552,25.534227,-33.703291, 0.
1553,26.162227,-33.703291, 0.
1554,26.790227,-33.703291, 0.
1555,27.418227,-33.703291, 0.
1556,24.906227,-34.331291, 0.
1557,25.534227,-34.331291, 0.
1558,26.162227,-34.331291, 0.
1559,26.790227,-34.331291, 0.
1560,27.418227,-34.331291, 0.
1561,24.906227,-34.959291, 0.
1562,25.534227,-34.959291, 0.
1563,26.162227,-34.959291, 0.
1564,26.790227,-34.959291, 0.
1565,27.418227,-34.959291, 0.
1566,24.906227,-35.587291, 0.
1567,25.534227,-35.587291, 0.
1568,26.162227,-35.587291, 0.
1569,26.790227,-35.587291, 0.
1570,27.418227,-35.587291, 0.
1571,24.906227,-36.215291, 0.
1572,25.534227,-36.215291, 0.
1573,26.162227,-36.215291, 0.
1574,26.790227,-36.215291, 0.
1575,27.418227,-36.215291, 0.
*Element, type=S4
1,2,1,6,7
2,3,2,7,8
3,4,3,8,9
4,5,4,9,10
5,7,6,11,12
6,8,7,12,13
7,9,8,13,14
8,10,9,14,15
9,12,11,16,17
10,13,12,17,18
11,14,13,18,19
12,15,14,19,20
13,17,16,21,22
14,18,17,22,23
15,19,18,23,24
16,20,19,24,25
17,27,26,31,32
18,28,27,32,33
19,29,28,33,34
20,30,29,34,35
21,32,31,36,37
22,33,32,37,38
23,34,33,38,39
24,35,34,39,40
25,37,36,41,42
26,38,37,42,43
27,39,38,43,44
28,40,39,44,45
29,42,41,46,47
30,43,42,47,48
31,44,43,48,49
32,45,44,49,50
33,52,51,56,57
34,53,52,57,58
35,54,53,58,59
36,55,54,59,60
37,57,56,61,62
38,58,57,62,63
39,59,58,63,64
40,60,59,64,65
41,62,61,66,67
42,63,62,67,68
43,64,63,68,69
44,65,64,69,70
45,67,66,71,72
46,68,67,72,73
47,69,68,73,74
48,70,69,74,75
49,77,76,81,82
50,78,77,82,83
51,79,78,83,84
52,80,79,84,85
53,82,81,86,87
54,83,82,87,88
55,84,83,88,89
56,85,84,89,90
57,87,86,91,92
58,88,87,92,93
59,89,88,93,94
60,90,89,94,95
61,92,91,96,97
62,93,92,97,98
63,94,93,98,99
64,95,94,99,100
65,102,101,106,107
66,103,102,107,108
67,104,103,108,109
68,105,104,109,110
69,107,106,111,112
70,108,107,112,113
71,109,108,113,114
72,110,109,114,115
73,112,111,116,117
74,113,112,117,118
75,114,113,118,119
76,115,114,119,120
77,117,116,121,122
78,118,117,122,123
79,119,118,123,124
80,120,119,124,125
81,127,126,131,132
82,128,127,132,133
83,129,128,133,134
84,130,129,134,135
85,132,131,136,137
86,133,132,137,138
87,134,133,138,139
88,135,134,139,140
89,137,136,141,142
90,138,137,142,143
91,139,138,143,144
92,140,139,144,145
93,142,141,146,147
94,143,142,147,148
95,144,143,148,149
96,145,144,149,150
97,152,151,156,157
98,153,152,157,158
99,154,153,158,159
100,155,154,159,160
101,157,156,161,162
102,158,157,162,163
103,159,158,163,164
104,160,159,164,165
105,162,161,166,167
106,163,162,167,168
107,164,163,168,169
108,165,164,169,170
109,167,166,171,172
110,168,167,172,173
111,169,168,173,174
112,170,169,174,175
113,177,176,181,182
114,178,177,182,183
115,179,178,183,184
116,180,179,184,185
117,182,181,186,187
118,183,182,187,188
119,184,183,188,189
120,185,184,189,190
121,187,186,191,192
122,188,187,192,193
123,189,188,193,194
124,190,189,194,195
125,192,191,196,197
126,193,192,197,198
127,194,193,198,199
128,195,194,199,200
129,202,201,206,207
130,203,202,207,208
131,204,203,208,209
132,205,204,209,210
133,207,206,211,212
134,208,207,212,213
135,209,208,213,214
136,210,209,214,215
137,212,211,216,217
138,213,212,217,218
139,214,213,218,219
140,215,214,219,220
141,217,216,221,222
142,218,217,222,223
143,219,218,223,224
144,220,219,224,225
145,227,226,231,232
146,228,227,232,233
147,229,228,233,234
148,230,229,234,235
149,232,231,236,237
150,233,232,237,238
151,234,233,238,239
152,235,234,239,240
153,237,236,241,242
154,238,237,242,243
155,239,238,243,244
156,240,239,244,245
157,242,241,246,247
158,243,242,247,248
159,244,243,248,249
160,245,244,249,250
161,252,251,256,257
162,253,252,257,258
163,254,253,258,259
164,255,254,259,260
165,257,256,261,262
166,258,257,262,263
167,259,258,263,264
168,260,259,264,265
169,262,261,266,267
170,263,262,267,268
171,264,263,268,269
172,265,264,269,270
173,267,266,271,272
174,268,267,272,273
175,269,268,273,274
176,270,269,274,275
177,277,276,281,282
178,278,277,282,283
179,279,278,283,284
180,280,279,284,285
181,282,281,286,287
182,283,282,287,288
183,284,283,288,289
184,285,284,289,290
185,287,286,291,292
186,288,287,292,293
187,289,288,293,294
188,290,289,294,295
189,292,291,296,297
190,293,292,297,298
191,294,293,298,299
192,295,294,299,300
193,302,301,306,307
194,303,302,307,308
195,304,303,308,309
196,305,304,309,310
197,307,306,311,312
198,308,307,312,313
199,309,308,313,314
200,310,309,314,315
201,312,311,316,317
202,313,312,317,318
203,314,313,318,319
204,315,314,319,320
205,317,316,321,322
206,318,317,322,323
207,319,318,323,324
208,320,319,324,325
209,327,326,331,332
210,328,327,332,333
211,329,328,333,334
212,330,329,334,335
213,332,331,336,337
214,333,332,337,338
215,334,333,338,339
216,335,334,339,340
217,337,336,341,342
218,338,337,342,343
219,339,338,343,344
220,340,339,344,345
221,342,341,346,347
222,343,342,347,348
223,344,343,348,349
224,345,344,349,350
225,352,351,356,357
226,353,352,357,358
227,354,353,358,359
228,355,354,359,360
229,357,356,361,362
230,358,357,362,363
231,359,358,363,364
232,360,359,364,365
233,362,361,366,367
234,363,362,367,368
235,364,363,368,369
236,365,364,369,370
237,367,366,371,372
238,368,367,372,373
239,369,368,373,374
240,370,369,374,375
241,377,376,381,382
242,378,377,382,383
243,379,378,383,384
244,380,379,384,385
245,382,381,386,387
246,383,382,387,388
247,384,383,388,389
248,385,384,389,390
249,387,386,391,392
250,388,387,392,393
251,389,388,393,394
252,390,389,394,395
253,392,391,396,397
254,393,392,397,398
255,394,393,398,399
256,395,394,399,400
257,402,401,406,407
258,403,402,407,408
259,404,403,408,409
260,405,404,409,410
261,407,406,411,412
262,408,407,412,413
263,409,408,413,414
264,410,409,414,415
265,412,411,416,417
266,413,412,417,418
267,414,413,418,419
268,415,414,419,420
269,417,416,421,422
270,418,417,422,423
271,419,418,423,424
272,420,419,424,425
273,427,426,431,432
274,428,427,432,433
275,429,428,433,434
276,430,429,434,435
277,432,431,436,437
278,433,432,437,438
279,434,433,438,439
280,435,434,439,440
281,437,436,441,442
282,438,437,442,443
283,439,438,443,444
284,440,439,444,445
285,442,441,446,447
286,443,442,447,448
287,444,443,448,449
288,445,444,449,450
289,452,451,456,457
290,453,452,457,458
291,454,453,458,459
292,455,454,459,460
293,457,456,461,462
294,458,457,462,463
295,459,458,463,464
296,460,459,464,465
297,462,461,466,467
298,463,462,467,468
299,464,463,468,469
300,465,464,469,470
301,467,466,471,472
302,468,467,472,473
303,469,468,473,474
304,470,469,474,475
305,477,476,481,482
306,478,477,482,483
307,479,478,483,484
308,480,479,484,485
309,482,481,486,487
310,483,482,487,488
311,484,483,488,489
312,485,484,489,490
313,487,486,491,492
314,488,487,492,493
315,489,488,493,494
316,490,489,494,495
317,492,491,496,497
318,493,492,497,498
319,494,493,498,499
320,495,494,499,500
321,502,501,506,507
322,503,502,507,508
323,504,503,508,509
324,505,504,509,510
325,507,506,511,512
326,508,507,512,513
327,509,508,513,514
328,510,509,514,515
329,512,511,516,517
330,513,512,517,518
331,514,513,518,519
332,515,514,519,520
333,517,516,521,522
334,518,517,522,523
335,519,518,523,524
336,520,519,524,525
337,527,526,531,532
338,528,527,532,533
339,529,528,533,534
340,530,529,534,535
341,532,531,536,537
342,533,532,537,538
343,534,533,538,539
344,535,534,539,540
345,537,536,541,542
346,538,537,542,543
347,539,538,543,544
348,540,539,544,545
349,542,541,546,547
350,543,542,547,548
351,544,543,548,549
352,545,544,549,550
353,552,551,556,557
354,553,552,557,558
355,554,553,558,559
356,555,554,559,560
357,557,556,561,562
358,558,557,562,563
359,559,558,563,564
360,560,559,564,565
361,562,561,566,567
362,563,562,567,568
363,564,563,568,569
364,565,564,569,570
365,567,566,571,572
366,568,567,572,573
367,569,568,573,574
368,570,569,574,575
369,577,576,581,582
370,578,577,582,583
371,579,578,583,584
372,580,579,584,585
373,582,581,586,587
374,583,582,587,588
375,584,583,588,589
376,585,584,589,590
377,587,586,591,592
378,588,587,592,593
379,589,588,593,594
380,590,589,594,595
381,592,591,596,597
382,593,592,597,598
383,594,593,598,599
384,595,594,599,600
385,602,601,606,607
386,603,602,607,608
387,604,603,608,609
388,605,604,609,610
389,607,606,611,612
390,608,607,612,613
391,609,608,613,614
392,610,609,614,615
393,612,611,616,617
394,613,612,617,618
395,614,613,618,619
396,615,614,619,620
397,617,616,621,622
398,618,617,622,623
399,619,618,623,624
400,620,619,624,625
401,627,626,631,632
402,628,627,632,633
403,629,628,633,634
404,630,629,634,635
405,632,631,636,637
406,633,632,637,638
407,634,633,638,639
408,635,634,639,640
409,637,636,641,642
410,638,637,642,643
411,639,638,643,644
412,640,639,644,645
413,642,641,646,647
414,643,642,647,648
415,644,643,648,649
416,645,644,649,650
417,652,651,656,657
418,653,652,657,658
419,654,653,658,659
420,655,654,659,660
421,657,656,661,662
422,658,657,662,663
423,659,658,663,664
424,660,659,664,665
425,662,661,666,667
426,663,662,667,668
427,664,663,668,669
428,665,664,669,670
429,667,666,671,672
430,668,667,672,673
431,669,668,673,674
432,670,669,674,675
433,677,676,681,682
434,678,677,682,683
435,679,678,683,684
436,680,679,684,685
437,682,681,686,687
438,683,682,687,688
439,684,683,688,689
440,685,684,689,690
441,687,686,691,692
442,688,687,692,693
443,689,688,693,694
444,690,689,694,695
445,692,691,696,697
446,693,692,697,698
447,694,693,698,699
448,695,694,699,700
449,702,701,706,707
450,703,702,707,708
451,704,703,708,709
452,705,704,709,710
453,707,706,711,712
454,708,707,712,713
455,709,708,713,714
456,710,709,714,715
457,712,711,716,717
458,713,712,717,718
459,714,713,718,719
460,715,714,719,720
461,717,716,721,722
462,718,717,722,723
463,719,718,723,724
464,720,719,724,725
465,727,726,731,732
466,728,727,732,733
467,729,728,733,734
468,730,729,734,735
469,732,731,736,737
470,733,732,737,738
471,734,733,738,739
472,735,734,739,740
473,737,736,741,742
474,738,737,742,743
475,739,738,743,744
476,740,739,744,745
477,742,741,746,747
478,743,742,747,748
479,744,743,748,749
480,745,744,749,750
481,752,751,756,757
482,753,752,757,758
483,754,753,758,759
484,755,754,759,760
485,757,756,761,762
486,758,757,762,763
487,759,758,763,764
488,760,759,764,765
489,762,761,766,767
490,763,762,767,768
491,764,763,768,769
492,765,764,769,770
493,767,766,771,772
494,768,767,772,773
495,769,768,773,774
496,770,769,774,775
497,777,776,781,782
498,778,777,782,783
499,779,778,783,784
500,780,779,784,785
501,782,781,786,787
502,783,782,787,788
503,784,783,788,789
504,785,784,789,790
505,787,786,791,792
506,788,787,792,793
507,789,788,793,794
508,790,789,794,795
509,792,791,796,797
510,793,792,797,798
511,794,793,798,799
512,795,794,799,800
513,802,801,806,807
514,803,802,807,808
515,804,803,808,809
516,805,804,809,810
517,807,806,811,812
518,808,807,812,813
519,809,808,813,814
520,810,809,814,815
521,812,811,816,817
522,813,812,817,818
523,814,813,818,819
524,815,814,819,820
525,817,816,821,822
526,818,817,822,823
527,819,818,823,824
528,820,819,824,825
529,827,826,831,832
530,828,827,832,833
531,829,828,833,834
532,830,829,834,835
533,832,831,836,837
534,833,832,837,838
535,834,833,838,839
536,835,834,839,840
537,837,836,841,842
538,838,837,842,843
539,839,838,843,844
540,840,839,844,845
541,842,841,846,847
542,843,842,847,848
543,844,843,848,849
544,845,844,849,850
545,852,851,856,857
546,853,852,857,858
547,854,853,858,859
548,855,854,859,860
549,857,856,861,862
550,858,857,862,863
551,859,858,863,864
552,860,859,864,865
553,862,861,866,867
554,863,862,867,868
555,864,863,868,869
556,865,864,869,870
557,867,866,871,872
558,868,867,872,873
559,869,868,873,874
560,870,869,874,875
561,877,876,881,882
562,878,877,882,883
563,879,878,883,884
564,880,879,884,885
565,882,881,886,887
566,883,882,887,888
567,884,883,888,889
568,885,884,889,890
569,887,886,891,892
570,888,887,892,893
571,889,888,893,894
572,890,889,894,895
573,892,891,896,897
574,893,892,897,898
575,894,893,898,899
576,895,894,899,900
577,902,901,906,907
578,903,902,907,908
579,904,903,908,909
580,905,904,909,910
581,907,906,911,912
582,908,907,912,913
583,909,908,913,914
584,910,909,914,915
585,912,911,916,917
586,913,912,917,918
587,914,913,918,919
588,915,914,919,920
589,917,916,921,922
590,918,917,922,923
591,919,918,923,924
592,920,919,924,925
593,927,926,931,932
594,928,927,932,933
595,929,928,933,934
596,930,929,934,935
597,932,931,936,937
598,933,932,937,938
599,934,933,938,939
600,935,934,939,940
601,937,936,941,942
602,938,937,942,943
603,939,938,943,944
604,940,939,944,945
605,942,941,946,947
606,943,942,947,948
607,944,943,948,949
608,945,944,949,950
609,952,951,956,957
610,953,952,957,958
611,954,953,958,959
612,955,954,959,960
613,957,956,961,962
614,958,957,962,963
615,959,958,963,964
616,960,959,964,965
617,962,961,966,967
618,963,962,967,968
619,964,963,968,969
620,965,964,969,970
621,967,966,971,972
622,968,967,972,973
623,969,968,973,974
624,970,969,974,975
625,977,976,981,982
626,978,977,982,983
627,979,978,983,984
628,980,979,984,985
629,982,981,986,987
630,983,982,987,988
631,984,983,988,989
632,985,984,989,990
633,987,986,991,992
634,988,987,992,993
635,989,988,993,994
636,990,989,994,995
637,992,991,996,997
638,993,992,997,998
639,994,993,998,999
640,995,994,999,1000
641,1002,1001,1006,1007
642,1003,1002,1007,1008
643,1004,1003,1008,1009
644,1005,1004,1009,1010
645,1007,1006,1011,1012
646,1008,1007,1012,1013
647,1009,1008,1013,1014
648,1010,1009,1014,1015
649,1012,1011,1016,1017
650,1013,1012,1017,1018
651,1014,1013,1018,1019
652,1015,1014,1019,1020
653,1017,1016,1021,1022
654,1018,1017,1022,1023
655,1019,1018,1023,1024
656,1020,1019,1024,1025
657,1027,1026,1031,1032
658,1028,1027,1032,1033
659,1029,1028,1033,1034
660,1030,1029,1034,1035
661,1032,1031,1036,1037
662,1033,1032,1037,1038
663,1034,1033,1038,1039
664,1035,1034,1039,1040
665,1037,1036,1041,1042
666,1038,1037,1042,1043
667,1039,1038,1043,1044
668,1040,1039,1044,1045
669,1042,1041,1046,1047
670,1043,1042,1047,1048
671,1044,1043,1048,1049
672,1045,1044,1049,1050
673,1052,1051,1056,1057
674,1053,1052,1057,1058
675,1054,1053,1058,1059
676,1055,1054,1059,1060
677,1057,1056,1061,1062
678,1058,1057,1062,1063
679,1059,1058,1063,1064
680,1060,1059,1064,1065
681,1062,1061,1066,1067
682,1063,1062,1067,1068
683,1064,1063,1068,1069
684,1065,1064,1069,1070
685,1067,1066,1071,1072
686,1068,1067,1072,1073
687,1069,1068,1073,1074
688,1070,1069,1074,1075
689,1077,1076,1081,1082
690,1078,1077,1082,1083
691,1079,1078,1083,1084
692,1080,1079,1084,1085
693,1082,1081,1086,1087
694,1083,1082,1087,1088
695,1084,1083,1088,1089
696,1085,1084,1089,1090
697,1087,1086,1091,1092
698,1088,1087,1092,1093
699,1089,1088,1093,1094
700,1090,1089,1094,1095
701,1092,1091,1096,1097
702,1093,1092,1097,1098
703,1094,1093,1098,1099
704,1095,1094,1099,1100
705,1102,1101,1106,1107
706,1103,1102,1107,1108
707,1104,1103,1108,1109
708,1105,1104,1109,1110
709,1107,1106,1111,1112
710,1108,1107,1112,1113
711,1109,1108,1113,1114
712,1110,1109,1114,1115
713,1112,1111,1116,1117
714,1113,1112,1117,1118
715,1114,1113,1118,1119
716,1115,1114,1119,1120
717,1117,1116,1121,1122
718,1118,1117,1122,1123
719,1119,1118,1123,1124
720,1120,1119,1124,1125
721,1127,1126,1131,1132
722,1128,1127,1132,1133
723,1129,1128,1133,1134
724,1130,1129,1134,1135
725,1132,1131,1136,1137
726,1133,1132,1137,1138
727,1134,1133,1138,1139
728,1135,1134,1139,1140
729,1137,1136,1141,1142
730,1138,1137,1142,1143
731,1139,1138,1143,1144
732,1140,1139,1144,1145
733,1142,1141,1146,1147
734,1143,1142,1147,1148
735,1144,1143,1148,1149
736,1145,1144,1149,1150
737,1152,1151,1156,1157
738,1153,1152,1157,1158
739,1154,1153,1158,1159
740,1155,1154,1159,1160
741,1157,1156,1161,1162
742,1158,1157,1162,1163
743,1159,1158,1163,1164
744,1160,1159,1164,1165
745,1162,1161,1166,1167
746,1163,1162,1167,1168
747,1164,1163,1168,1169
748,1165,1164,1169,1170
749,1167,1166,1171,1172
750,1168,1167,1172,1173
751,1169,1168,1173,1174
752,1170,1169,1174,1175
753,1177,1176,1181,1182
754,1178,1177,1182,1183
755,1179,1178,1183,1184
756,1180,1179,1184,1185
757,1182,1181,1186,1187
758,1183,1182,1187,1188
759,1184,1183,1188,1189
760,1185,1184,1189,1190
761,1187,1186,1191,1192
762,1188,1187,1192,1193
763,1189,1188,1193,1194
764,1190,1189,1194,1195
765,1192,1191,1196,1197
766,1193,1192,1197,1198
767,1194,1193,1198,1199
768,1195,1194,1199,1200
769,1202,1201,1206,1207
770,1203,1202,1207,1208
771,1204,1203,1208,1209
772,1205,1204,1209,1210
773,1207,1206,1211,1212
774,1208,1207,1212,1213
775,1209,1208,1213,1214
776,1210,1209,1214,1215
777,1212,1211,1216,1217
778,1213,1212,1217,1218
779,1214,1213,1218,1219
780,1215,1214,1219,1220
781,1217,1216,1221,1222
782,1218,1217,1222,1223
783,1219,1218,1223,1224
784,1220,1219,1224,1225
785,1227,1226,1231,1232
786,1228,1227,1232,1233
787,1229,1228,1233,1234
788,1230,1229,1234,1235
789,1232,1231,1236,1237
790,1233,1232,1237,1238
791,1234,1233,1238,1239
792,1235,1234,1239,1240
793,1237,1236,1241,1242
794,1238,1237,1242,1243
795,1239,1238,1243,1244
796,1240,1239,1244,1245
797,1242,1241,1246,1247
798,1243,1242,1247,1248
799,1244,1243,1248,1249
800,1245,1244,1249,1250
801,1252,1251,1256,1257
802,1253,1252,1257,1258
803,1254,1253,1258,1259
804,1255,1254,1259,1260
805,1257,1256,1261,1262
806,1258,1257,1262,1263
807,1259,1258,1263,1264
808,1260,1259,1264,1265
809,1262,1261,1266,1267
810,1263,1262,1267,1268
811,1264,1263,1268,1269
812,1265,1264,1269,1270
813,1267,1266,1271,1272
814,1268,1267,1272,1273
815,1269,1268,1273,1274
816,1270,1269,1274,1275
817,1277,1276,1281,1282
818,1278,1277,1282,1283
819,1279,1278,1283,1284
820,1280,1279,1284,1285
821,1282,1281,1286,1287
822,1283,1282,1287,1288
823,1284,1283,1288,1289
824,1285,1284,1289,1290
825,1287,1286,1291,1292
826,1288,1287,1292,1293
827,1289,1288,1293,1294
828,1290,1289,1294,1295
829,1292,1291,1296,1297
830,1293,1292,1297,1298
831,1294,1293,1298,1299
832,1295,1294,1299,1300
833,1302,1301,1306,1307
834,1303,1302,1307,1308
835,1304,1303,1308,1309
836,1305,1304,1309,1310
837,1307,1306,1311,1312
838,1308,1307,1312,1313
839,1309,1308,1313,1314
840,1310,1309,1314,1315
841,1312,1311,1316,1317
842,1313,1312,1317,1318
843,1314,1313,1318,1319
844,1315,1314,1319,1320
845,1317,1316,1321,1322
846,1318,1317,1322,1323
847,1319,1318,1323,1324
848,1320,1319,1324,1325
849,1327,1326,1331,1332
850,1328,1327,1332,1333
851,1329,1328,1333,1334
852,1330,1329,1334,1335
853,1332,1331,1336,1337
854,1333,1332,1337,1338
855,1334,1333,1338,1339
856,1335,1334,1339,1340
857,1337,1336,1341,1342
858,1338,1337,1342,1343
859,1339,1338,1343,1344
860,1340,1339,1344,1345
861,1342,1341,1346,1347
862,1343,1342,1347,1348
863,1344,1343,1348,1349
864,1345,1344,1349,1350
865,1352,1351,1356,1357
866,1353,1352,1357,1358
867,1354,1353,1358,1359
868,1355,1354,1359,1360
869,1357,1356,1361,1362
870,1358,1357,1362,1363
871,1359,1358,1363,1364
872,1360,1359,1364,1365
873,1362,1361,1366,1367
874,1363,1362,1367,1368
875,1364,1363,1368,1369
876,1365,1364,1369,1370
877,1367,1366,1371,1372
878,1368,1367,1372,1373
879,1369,1368,1373,1374
880,1370,1369,1374,1375
881,1377,1376,1381,1382
882,1378,1377,1382,1383
883,1379,1378,1383,1384
884,1380,1379,1384,1385
885,1382,1381,1386,1387
886,1383,1382,1387,1388
887,1384,1383,1388,1389
888,1385,1384,1389,1390
889,1387,1386,1391,1392
890,1388,1387,1392,1393
891,1389,1388,1393,1394
892,1390,1389,1394,1395
893,1392,1391,1396,1397
894,1393,1392,1397,1398
895,1394,1393,1398,1399
896,1395,1394,1399,1400
897,1402,1401,1406,1407
898,1403,1402,1407,1408
899,1404,1403,1408,1409
900,1405,1404,1409,1410
901,1407,1406,1411,1412
902,1408,1407,1412,1413
903,1409,1408,1413,1414
904,1410,1409,1414,1415
905,1412,1411,1416,1417
906,1413,1412,1417,1418
907,1414,1413,1418,1419
908,1415,1414,1419,1420
909,1417,1416,1421,1422
910,1418,1417,1422,1423
911,1419,1418,1423,1424
912,1420,1419,1424,1425
913,1427,1426,1431,1432
914,1428,1427,1432,1433
915,1429,1428,1433,1434
916,1430,1429,1434,1435
917,1432,1431,1436,1437
918,1433,1432,1437,1438
919,1434,1433,1438,1439
920,1435,1434,1439,1440
921,1437,1436,1441,1442
922,1438,1437,1442,1443
923,1439,1438,1443,1444
924,1440,1439,1444,1445
925,1442,1441,1446,1447
926,1443,1442,1447,1448
927,1444,1443,1448,1449
928,1445,1444,1449,1450
929,1452,1451,1456,1457
930,1453,1452,1457,1458
931,1454,1453,1458,1459
932,1455,1454,1459,1460
933,1457,1456,1461,1462
934,1458,1457,1462,1463
935,1459,1458,1463,1464
936,1460,1459,1464,1465
937,1462,1461,1466,1467
938,1463,1462,1467,1468
939,1464,1463,1468,1469
940,1465,1464,1469,1470
941,1467,1466,1471,1472
942,1468,1467,1472,1473
943,1469,1468,1473,1474
944,1470,1469,1474,1475
945,1477,1476,1481,1482
946,1478,1477,1482,1483
947,1479,1478,1483,1484
948,1480,1479,1484,1485
949,1482,1481,1486,1487
950,1483,1482,1487,1488
951,1484,1483,1488,1489
952,1485,1484,1489,1490
953,1487,1486,1491,1492
954,1488,1487,1492,1493
955,1489,1488,1493,1494
956,1490,1489,1494,1495
957,1492,1491,1496,1497
958,1493,1492,1497,1498
959,1494,1493,1498,1499
960,1495,1494,1499,1500
961,1502,1501,1506,1507
962,1503,1502,1507,1508
963,1504,1503,1508,1509
964,1505,1504,1509,1510
965,1507,1506,1511,1512
966,1508,1507,1512,1513
967,1509,1508,1513,1514
968,1510,1509,1514,1515
969,1512,1511,1516,1517
970,1513,1512,1517,1518
971,1514,1513,1518,1519
972,1515,1514,1519,1520
973,1517,1516,1521,1522
974,1518,1517,1522,1523
975,1519,1518,1523,1524
976,1520,1519,1524,1525
977,1527,1526,1531,1532
978,1528,1527,1532,1533
979,1529,1528,1533,1534
980,1530,1529,1534,1535
981,1532,1531,1536,1537
982,1533,1532,1537,1538
983,1534,1533,1538,1539
984,1535,1534,1539,1540
985,1537,1536,1541,1542
986,1538,1537,1542,1543
987,1539,1538,1543,1544
988,1540,1539,1544,1545
989,1542,1541,1546,1547
990,1543,1542,1547,1548
991,1544,1543,1548,1549
992,1545,1544,1549,1550
993,1552,1551,1556,1557
994,1553,1552,1557,1558
995,1554,1553,1558,1559
996,1555,1554,1559,1560
997,1557,1556,1561,1562
998,1558,1557,1562,1563
999,1559,1558,1563,1564
1000,1560,1559,1564,1565
1001,1562,1561,1566,1567
1002,1563,1562,1567,1568
1003,1564,1563,1568,1569
1004,1565,1564,1569,1570
1005,1567,1566,1571,1572
1006,1568,1567,1572,1573
1007,1569,1568,1573,1574
1008,1570,1569,1574,1575
*Nset, nset=SET-1, generate
1, 1575, 1
*Elset, elset=SET-1, generate
1, 1008, 1
** Section: Section-1-SET-1
*Shell Section, elset=SET-1, composite
0.014, 3, PI-2611, 0., TOP-2611
0.001, 3, PI-2545, 0., TOP-2545
0.0002, 3, GOLD, 0., GOLD
0.001, 3, PI-2545, 0., BOT-2545
0.014, 3, PI-2611, 0., BOT-2611
*End Part
*Assembly, name=Assembly
*Instance, name=MP-1, part=MP
*End Instance
*Nset, nset=SET-1, instance=MP-1
1
6
11
16
21
176
181
186
191
196
351
356
361
366
371
526
531
536
541
546
701
706
711
716
721
876
881
886
891
896
1051
1056
1061
1066
1071
1226
1231
1236
1241
1246
1401
1406
1411
1416
1421
*Nset, nset=SET-2, instance=MP-1
155
160
165
170
175
330
335
340
345
350
505
510
515
520
525
680
685
690
695
700
855
860
865
870
875
1030
1035
1040
1045
1050
1205
1210
1215
1220
1225
1380
1385
1390
1395
1400
1555
1560
1565
1570
1575
*Nset, nset=SET-3, instance=MP-1
1
2
3
4
5
26
27
28
29
30
51
52
53
54
55
76
77
78
79
80
101
102
103
104
105
126
127
128
129
130
151
152
153
154
155
*Nset, nset=SET-4, instance=MP-1
1
6
11
16
21
176
181
186
191
196
351
356
361
366
371
526
531
536
541
546
701
706
711
716
721
876
881
886
891
896
1051
1056
1061
1066
1071
1226
1231
1236
1241
1246
1401
1406
1411
1416
1421
155
160
165
170
175
330
335
340
345
350
505
510
515
520
525
680
685
690
695
700
855
860
865
870
875
1030
1035
1040
1045
1050
1205
1210
1215
1220
1225
1380
1385
1390
1395
1400
1555
1560
1565
1570
1575
*Nset, nset=SET-5, instance=MP-1
1421
1422
1423
1424
1425
1446
1447
1448
1449
1450
1471
1472
1473
1474
1475
1496
1497
1498
1499
1500
1521
1522
1523
1524
1525
1546
1547
1548
1549
1550
1571
1572
1573
1574
1575
*Nset, nset=SET-6, instance=MP-1, generate
1, 1575, 1
*Nset, nset=SET-CENTERNODES, instance=MP-1
13
38
63
88
113
138
163
188
213
238
263
288
313
338
363
388
413
438
463
488
513
538
563
588
613
638
663
688
713
738
763
788
813
838
863
888
913
938
963
988
1013
1038
1063
1088
1113
1138
1163
1188
1213
1238
1263
1288
1313
1338
1363
1388
1413
1438
1463
1488
1513
1538
1563
*Element, type=CONN3D2
1, MP-1.15, MP-1.36
*Connector Section, elset=Conns-1, behavior=ConnSect-1
Axial,
*Element, type=CONN3D2
2, MP-1.40, MP-1.61
*Connector Section, elset=Conns-2, behavior=ConnSect-2
Axial,
*Element, type=CONN3D2
3, MP-1.65, MP-1.86
*Connector Section, elset=Conns-3, behavior=ConnSect-3
Axial,
*Element, type=CONN3D2
4, MP-1.90, MP-1.111
*Connector Section, elset=Conns-4, behavior=ConnSect-4
Axial,
*Element, type=CONN3D2
5, MP-1.115, MP-1.136
*Connector Section, elset=Conns-5, behavior=ConnSect-5
Axial,
*Element, type=CONN3D2
6, MP-1.140, MP-1.161
*Connector Section, elset=Conns-6, behavior=ConnSect-6
Axial,
*Element, type=CONN3D2
7, MP-1.190, MP-1.211
*Connector Section, elset=Conns-7, behavior=ConnSect-7
Axial,
*Element, type=CONN3D2
8, MP-1.215, MP-1.236
*Connector Section, elset=Conns-8, behavior=ConnSect-8
Axial,
*Element, type=CONN3D2
9, MP-1.240, MP-1.261
*Connector Section, elset=Conns-9, behavior=ConnSect-9
Axial,
*Element, type=CONN3D2
10, MP-1.265, MP-1.286
*Connector Section, elset=Conns-10, behavior=ConnSect-10
Axial,
*Element, type=CONN3D2
11, MP-1.290, MP-1.311
*Connector Section, elset=Conns-11, behavior=ConnSect-11
Axial,
*Element, type=CONN3D2
12, MP-1.315, MP-1.336
*Connector Section, elset=Conns-12, behavior=ConnSect-12
Axial,
*Element, type=CONN3D2
13, MP-1.365, MP-1.386
*Connector Section, elset=Conns-13, behavior=ConnSect-13
Axial,
*Element, type=CONN3D2
14, MP-1.390, MP-1.411
*Connector Section, elset=Conns-14, behavior=ConnSect-14
Axial,
*Element, type=CONN3D2
15, MP-1.415, MP-1.436
*Connector Section, elset=Conns-15, behavior=ConnSect-15
Axial,
*Element, type=CONN3D2
16, MP-1.440, MP-1.461
*Connector Section, elset=Conns-16, behavior=ConnSect-16
Axial,
*Element, type=CONN3D2
17, MP-1.465, MP-1.486
*Connector Section, elset=Conns-17, behavior=ConnSect-17
Axial,
*Element, type=CONN3D2
18, MP-1.490, MP-1.511
*Connector Section, elset=Conns-18, behavior=ConnSect-18
Axial,
*Element, type=CONN3D2
19, MP-1.540, MP-1.561
*Connector Section, elset=Conns-19, behavior=ConnSect-19
Axial,
*Element, type=CONN3D2
20, MP-1.565, MP-1.586
*Connector Section, elset=Conns-20, behavior=ConnSect-20
Axial,
*Element, type=CONN3D2
21, MP-1.590, MP-1.611
*Connector Section, elset=Conns-21, behavior=ConnSect-21
Axial,
*Element, type=CONN3D2
22, MP-1.615, MP-1.636
*Connector Section, elset=Conns-22, behavior=ConnSect-22
Axial,
*Element, type=CONN3D2
23, MP-1.640, MP-1.661
*Connector Section, elset=Conns-23, behavior=ConnSect-23
Axial,
*Element, type=CONN3D2
24, MP-1.665, MP-1.686
*Connector Section, elset=Conns-24, behavior=ConnSect-24
Axial,
*Element, type=CONN3D2
25, MP-1.715, MP-1.736
*Connector Section, elset=Conns-25, behavior=ConnSect-25
Axial,
*Element, type=CONN3D2
26, MP-1.740, MP-1.761
*Connector Section, elset=Conns-26, behavior=ConnSect-26
Axial,
*Element, type=CONN3D2
27, MP-1.765, MP-1.786
*Connector Section, elset=Conns-27, behavior=ConnSect-27
Axial,
*Element, type=CONN3D2
28, MP-1.790, MP-1.811
*Connector Section, elset=Conns-28, behavior=ConnSect-28
Axial,
*Element, type=CONN3D2
29, MP-1.815, MP-1.836
*Connector Section, elset=Conns-29, behavior=ConnSect-29
Axial,
*Element, type=CONN3D2
30, MP-1.840, MP-1.861
*Connector Section, elset=Conns-30, behavior=ConnSect-30
Axial,
*Element, type=CONN3D2
31, MP-1.890, MP-1.911
*Connector Section, elset=Conns-31, behavior=ConnSect-31
Axial,
*Element, type=CONN3D2
32, MP-1.915, MP-1.936
*Connector Section, elset=Conns-32, behavior=ConnSect-32
Axial,
*Element, type=CONN3D2
33, MP-1.940, MP-1.961
*Connector Section, elset=Conns-33, behavior=ConnSect-33
Axial,
*Element, type=CONN3D2
34, MP-1.965, MP-1.986
*Connector Section, elset=Conns-34, behavior=ConnSect-34
Axial,
*Element, type=CONN3D2
35, MP-1.990, MP-1.1011
*Connector Section, elset=Conns-35, behavior=ConnSect-35
Axial,
*Element, type=CONN3D2
36, MP-1.1015, MP-1.1036
*Connector Section, elset=Conns-36, behavior=ConnSect-36
Axial,
*Element, type=CONN3D2
37, MP-1.1065, MP-1.1086
*Connector Section, elset=Conns-37, behavior=ConnSect-37
Axial,
*Element, type=CONN3D2
38, MP-1.1090, MP-1.1111
*Connector Section, elset=Conns-38, behavior=ConnSect-38
Axial,
*Element, type=CONN3D2
39, MP-1.1115, MP-1.1136
*Connector Section, elset=Conns-39, behavior=ConnSect-39
Axial,
*Element, type=CONN3D2
40, MP-1.1140, MP-1.1161
*Connector Section, elset=Conns-40, behavior=ConnSect-40
Axial,
*Element, type=CONN3D2
41, MP-1.1165, MP-1.1186
*Connector Section, elset=Conns-41, behavior=ConnSect-41
Axial,
*Element, type=CONN3D2
42, MP-1.1190, MP-1.1211
*Connector Section, elset=Conns-42, behavior=ConnSect-42
Axial,
*Element, type=CONN3D2
43, MP-1.1240, MP-1.1261
*Connector Section, elset=Conns-43, behavior=ConnSect-43
Axial,
*Element, type=CONN3D2
44, MP-1.1265, MP-1.1286
*Connector Section, elset=Conns-44, behavior=ConnSect-44
Axial,
*Element, type=CONN3D2
45, MP-1.1290, MP-1.1311
*Connector Section, elset=Conns-45, behavior=ConnSect-45
Axial,
*Element, type=CONN3D2
46, MP-1.1315, MP-1.1336
*Connector Section, elset=Conns-46, behavior=ConnSect-46
Axial,
*Element, type=CONN3D2
47, MP-1.1340, MP-1.1361
*Connector Section, elset=Conns-47, behavior=ConnSect-47
Axial,
*Element, type=CONN3D2
48, MP-1.1365, MP-1.1386
*Connector Section, elset=Conns-48, behavior=ConnSect-48
Axial,
*Element, type=CONN3D2
49, MP-1.1415, MP-1.1436
*Connector Section, elset=Conns-49, behavior=ConnSect-49
Axial,
*Element, type=CONN3D2
50, MP-1.1440, MP-1.1461
*Connector Section, elset=Conns-50, behavior=ConnSect-50
Axial,
*Element, type=CONN3D2
51, MP-1.1465, MP-1.1486
*Connector Section, elset=Conns-51, behavior=ConnSect-51
Axial,
*Element, type=CONN3D2
52, MP-1.1490, MP-1.1511
*Connector Section, elset=Conns-52, behavior=ConnSect-52
Axial,
*Element, type=CONN3D2
53, MP-1.1515, MP-1.1536
*Connector Section, elset=Conns-53, behavior=ConnSect-53
Axial,
*Element, type=CONN3D2
54, MP-1.1540, MP-1.1561
*Connector Section, elset=Conns-54, behavior=ConnSect-54
Axial,
*Element, type=CONN3D2
55, MP-1.23, MP-1.178
*Connector Section, elset=Conns-55, behavior=ConnSect-55
Axial,
*Element, type=CONN3D2
56, MP-1.198, MP-1.353
*Connector Section, elset=Conns-56, behavior=ConnSect-56
Axial,
*Element, type=CONN3D2
57, MP-1.373, MP-1.528
*Connector Section, elset=Conns-57, behavior=ConnSect-57
Axial,
*Element, type=CONN3D2
58, MP-1.548, MP-1.703
*Connector Section, elset=Conns-58, behavior=ConnSect-58
Axial,
*Element, type=CONN3D2
59, MP-1.723, MP-1.878
*Connector Section, elset=Conns-59, behavior=ConnSect-59
Axial,
*Element, type=CONN3D2
60, MP-1.898, MP-1.1053
*Connector Section, elset=Conns-60, behavior=ConnSect-60
Axial,
*Element, type=CONN3D2
61, MP-1.1073, MP-1.1228
*Connector Section, elset=Conns-61, behavior=ConnSect-61
Axial,
*Element, type=CONN3D2
62, MP-1.1248, MP-1.1403
*Connector Section, elset=Conns-62, behavior=ConnSect-62
Axial,
*Element, type=CONN3D2
63, MP-1.48, MP-1.203
*Connector Section, elset=Conns-63, behavior=ConnSect-63
Axial,
*Element, type=CONN3D2
64, MP-1.223, MP-1.378
*Connector Section, elset=Conns-64, behavior=ConnSect-64
Axial,
*Element, type=CONN3D2
65, MP-1.398, MP-1.553
*Connector Section, elset=Conns-65, behavior=ConnSect-65
Axial,
*Element, type=CONN3D2
66, MP-1.573, MP-1.728
*Connector Section, elset=Conns-66, behavior=ConnSect-66
Axial,
*Element, type=CONN3D2
67, MP-1.748, MP-1.903
*Connector Section, elset=Conns-67, behavior=ConnSect-67
Axial,
*Element, type=CONN3D2
68, MP-1.923, MP-1.1078
*Connector Section, elset=Conns-68, behavior=ConnSect-68
Axial,
*Element, type=CONN3D2
69, MP-1.1098, MP-1.1253
*Connector Section, elset=Conns-69, behavior=ConnSect-69
Axial,
*Element, type=CONN3D2
70, MP-1.1273, MP-1.1428
*Connector Section, elset=Conns-70, behavior=ConnSect-70
Axial,
*Element, type=CONN3D2
71, MP-1.73, MP-1.228
*Connector Section, elset=Conns-71, behavior=ConnSect-71
Axial,
*Element, type=CONN3D2
72, MP-1.248, MP-1.403
*Connector Section, elset=Conns-72, behavior=ConnSect-72
Axial,
*Element, type=CONN3D2
73, MP-1.423, MP-1.578
*Connector Section, elset=Conns-73, behavior=ConnSect-73
Axial,
*Element, type=CONN3D2
74, MP-1.598, MP-1.753
*Connector Section, elset=Conns-74, behavior=ConnSect-74
Axial,
*Element, type=CONN3D2
75, MP-1.773, MP-1.928
*Connector Section, elset=Conns-75, behavior=ConnSect-75
Axial,
*Element, type=CONN3D2
76, MP-1.948, MP-1.1103
*Connector Section, elset=Conns-76, behavior=ConnSect-76
Axial,
*Element, type=CONN3D2
77, MP-1.1123, MP-1.1278
*Connector Section, elset=Conns-77, behavior=ConnSect-77
Axial,
*Element, type=CONN3D2
78, MP-1.1298, MP-1.1453
*Connector Section, elset=Conns-78, behavior=ConnSect-78
Axial,
*Element, type=CONN3D2
79, MP-1.98, MP-1.253
*Connector Section, elset=Conns-79, behavior=ConnSect-79
Axial,
*Element, type=CONN3D2
80, MP-1.273, MP-1.428
*Connector Section, elset=Conns-80, behavior=ConnSect-80
Axial,
*Element, type=CONN3D2
81, MP-1.448, MP-1.603
*Connector Section, elset=Conns-81, behavior=ConnSect-81
Axial,
*Element, type=CONN3D2
82, MP-1.623, MP-1.778
*Connector Section, elset=Conns-82, behavior=ConnSect-82
Axial,
*Element, type=CONN3D2
83, MP-1.798, MP-1.953
*Connector Section, elset=Conns-83, behavior=ConnSect-83
Axial,
*Element, type=CONN3D2
84, MP-1.973, MP-1.1128
*Connector Section, elset=Conns-84, behavior=ConnSect-84
Axial,
*Element, type=CONN3D2
85, MP-1.1148, MP-1.1303
*Connector Section, elset=Conns-85, behavior=ConnSect-85
Axial,
*Element, type=CONN3D2
86, MP-1.1323, MP-1.1478
*Connector Section, elset=Conns-86, behavior=ConnSect-86
Axial,
*Element, type=CONN3D2
87, MP-1.123, MP-1.278
*Connector Section, elset=Conns-87, behavior=ConnSect-87
Axial,
*Element, type=CONN3D2
88, MP-1.298, MP-1.453
*Connector Section, elset=Conns-88, behavior=ConnSect-88
Axial,
*Element, type=CONN3D2
89, MP-1.473, MP-1.628
*Connector Section, elset=Conns-89, behavior=ConnSect-89
Axial,
*Element, type=CONN3D2
90, MP-1.648, MP-1.803
*Connector Section, elset=Conns-90, behavior=ConnSect-90
Axial,
*Element, type=CONN3D2
91, MP-1.823, MP-1.978
*Connector Section, elset=Conns-91, behavior=ConnSect-91
Axial,
*Element, type=CONN3D2
92, MP-1.998, MP-1.1153
*Connector Section, elset=Conns-92, behavior=ConnSect-92
Axial,
*Element, type=CONN3D2
93, MP-1.1173, MP-1.1328
*Connector Section, elset=Conns-93, behavior=ConnSect-93
Axial,
*Element, type=CONN3D2
94, MP-1.1348, MP-1.1503
*Connector Section, elset=Conns-94, behavior=ConnSect-94
Axial,
*Element, type=CONN3D2
95, MP-1.148, MP-1.303
*Connector Section, elset=Conns-95, behavior=ConnSect-95
Axial,
*Element, type=CONN3D2
96, MP-1.323, MP-1.478
*Connector Section, elset=Conns-96, behavior=ConnSect-96
Axial,
*Element, type=CONN3D2
97, MP-1.498, MP-1.653
*Connector Section, elset=Conns-97, behavior=ConnSect-97
Axial,
*Element, type=CONN3D2
98, MP-1.673, MP-1.828
*Connector Section, elset=Conns-98, behavior=ConnSect-98
Axial,
*Element, type=CONN3D2
99, MP-1.848, MP-1.1003
*Connector Section, elset=Conns-99, behavior=ConnSect-99
Axial,
*Element, type=CONN3D2
100, MP-1.1023, MP-1.1178
*Connector Section, elset=Conns-100, behavior=ConnSect-100
Axial,
*Element, type=CONN3D2
101, MP-1.1198, MP-1.1353
*Connector Section, elset=Conns-101, behavior=ConnSect-101
Axial,
*Element, type=CONN3D2
102, MP-1.1373, MP-1.1528
*Connector Section, elset=Conns-102, behavior=ConnSect-102
Axial,
*Element, type=CONN3D2
103, MP-1.173, MP-1.328
*Connector Section, elset=Conns-103, behavior=ConnSect-103
Axial,
*Element, type=CONN3D2
104, MP-1.348, MP-1.503
*Connector Section, elset=Conns-104, behavior=ConnSect-104
Axial,
*Element, type=CONN3D2
105, MP-1.523, MP-1.678
*Connector Section, elset=Conns-105, behavior=ConnSect-105
Axial,
*Element, type=CONN3D2
106, MP-1.698, MP-1.853
*Connector Section, elset=Conns-106, behavior=ConnSect-106
Axial,
*Element, type=CONN3D2
107, MP-1.873, MP-1.1028
*Connector Section, elset=Conns-107, behavior=ConnSect-107
Axial,
*Element, type=CONN3D2
108, MP-1.1048, MP-1.1203
*Connector Section, elset=Conns-108, behavior=ConnSect-108
Axial,
*Element, type=CONN3D2
109, MP-1.1223, MP-1.1378
*Connector Section, elset=Conns-109, behavior=ConnSect-109
Axial,
*Element, type=CONN3D2
110, MP-1.1398, MP-1.1553
*Connector Section, elset=Conns-110, behavior=ConnSect-110
Axial,
*Elset, elset=Conns-1
1,
*Elset, elset=Conns-2
2,
*Elset, elset=Conns-3
3,
*Elset, elset=Conns-4
4,
*Elset, elset=Conns-5
5,
*Elset, elset=Conns-6
6,
*Elset, elset=Conns-7
7,
*Elset, elset=Conns-8
8,
*Elset, elset=Conns-9
9,
*Elset, elset=Conns-10
10,
*Elset, elset=Conns-11
11,
*Elset, elset=Conns-12
12,
*Elset, elset=Conns-13
13,
*Elset, elset=Conns-14
14,
*Elset, elset=Conns-15
15,
*Elset, elset=Conns-16
16,
*Elset, elset=Conns-17
17,
*Elset, elset=Conns-18
18,
*Elset, elset=Conns-19
19,
*Elset, elset=Conns-20
20,
*Elset, elset=Conns-21
21,
*Elset, elset=Conns-22
22,
*Elset, elset=Conns-23
23,
*Elset, elset=Conns-24
24,
*Elset, elset=Conns-25
25,
*Elset, elset=Conns-26
26,
*Elset, elset=Conns-27
27,
*Elset, elset=Conns-28
28,
*Elset, elset=Conns-29
29,
*Elset, elset=Conns-30
30,
*Elset, elset=Conns-31
31,
*Elset, elset=Conns-32
32,
*Elset, elset=Conns-33
33,
*Elset, elset=Conns-34
34,
*Elset, elset=Conns-35
35,
*Elset, elset=Conns-36
36,
*Elset, elset=Conns-37
37,
*Elset, elset=Conns-38
38,
*Elset, elset=Conns-39
39,
*Elset, elset=Conns-40
40,
*Elset, elset=Conns-41
41,
*Elset, elset=Conns-42
42,
*Elset, elset=Conns-43
43,
*Elset, elset=Conns-44
44,
*Elset, elset=Conns-45
45,
*Elset, elset=Conns-46
46,
*Elset, elset=Conns-47
47,
*Elset, elset=Conns-48
48,
*Elset, elset=Conns-49
49,
*Elset, elset=Conns-50
50,
*Elset, elset=Conns-51
51,
*Elset, elset=Conns-52
52,
*Elset, elset=Conns-53
53,
*Elset, elset=Conns-54
54,
*Elset, elset=Conns-55
55,
*Elset, elset=Conns-56
56,
*Elset, elset=Conns-57
57,
*Elset, elset=Conns-58
58,
*Elset, elset=Conns-59
59,
*Elset, elset=Conns-60
60,
*Elset, elset=Conns-61
61,
*Elset, elset=Conns-62
62,
*Elset, elset=Conns-63
63,
*Elset, elset=Conns-64
64,
*Elset, elset=Conns-65
65,
*Elset, elset=Conns-66
66,
*Elset, elset=Conns-67
67,
*Elset, elset=Conns-68
68,
*Elset, elset=Conns-69
69,
*Elset, elset=Conns-70
70,
*Elset, elset=Conns-71
71,
*Elset, elset=Conns-72
72,
*Elset, elset=Conns-73
73,
*Elset, elset=Conns-74
74,
*Elset, elset=Conns-75
75,
*Elset, elset=Conns-76
76,
*Elset, elset=Conns-77
77,
*Elset, elset=Conns-78
78,
*Elset, elset=Conns-79
79,
*Elset, elset=Conns-80
80,
*Elset, elset=Conns-81
81,
*Elset, elset=Conns-82
82,
*Elset, elset=Conns-83
83,
*Elset, elset=Conns-84
84,
*Elset, elset=Conns-85
85,
*Elset, elset=Conns-86
86,
*Elset, elset=Conns-87
87,
*Elset, elset=Conns-88
88,
*Elset, elset=Conns-89
89,
*Elset, elset=Conns-90
90,
*Elset, elset=Conns-91
91,
*Elset, elset=Conns-92
92,
*Elset, elset=Conns-93
93,
*Elset, elset=Conns-94
94,
*Elset, elset=Conns-95
95,
*Elset, elset=Conns-96
96,
*Elset, elset=Conns-97
97,
*Elset, elset=Conns-98
98,
*Elset, elset=Conns-99
99,
*Elset, elset=Conns-100
100,
*Elset, elset=Conns-101
101,
*Elset, elset=Conns-102
102,
*Elset, elset=Conns-103
103,
*Elset, elset=Conns-104
104,
*Elset, elset=Conns-105
105,
*Elset, elset=Conns-106
106,
*Elset, elset=Conns-107
107,
*Elset, elset=Conns-108
108,
*Elset, elset=Conns-109
109,
*Elset, elset=Conns-110
110,
*Nset, nset=Wire-1-Set-1, instance=MP-1
15 36
*Elset, elset=Wire-1-Set-1
1
*Nset, nset=Wire-2-Set-1, instance=MP-1
40 61
*Elset, elset=Wire-2-Set-1
2
*Nset, nset=Wire-3-Set-1, instance=MP-1
65 86
*Elset, elset=Wire-3-Set-1
3
*Nset, nset=Wire-4-Set-1, instance=MP-1
90 111
*Elset, elset=Wire-4-Set-1
4
*Nset, nset=Wire-5-Set-1, instance=MP-1
115 136
*Elset, elset=Wire-5-Set-1
5
*Nset, nset=Wire-6-Set-1, instance=MP-1
140 161
*Elset, elset=Wire-6-Set-1
6
*Nset, nset=Wire-7-Set-1, instance=MP-1
190 211
*Elset, elset=Wire-7-Set-1
7
*Nset, nset=Wire-8-Set-1, instance=MP-1
215 236
*Elset, elset=Wire-8-Set-1
8
*Nset, nset=Wire-9-Set-1, instance=MP-1
240 261
*Elset, elset=Wire-9-Set-1
9
*Nset, nset=Wire-10-Set-1, instance=MP-1
265 286
*Elset, elset=Wire-10-Set-1
10
*Nset, nset=Wire-11-Set-1, instance=MP-1
290 311
*Elset, elset=Wire-11-Set-1
11
*Nset, nset=Wire-12-Set-1, instance=MP-1
315 336
*Elset, elset=Wire-12-Set-1
12
*Nset, nset=Wire-13-Set-1, instance=MP-1
365 386
*Elset, elset=Wire-13-Set-1
13
*Nset, nset=Wire-14-Set-1, instance=MP-1
390 411
*Elset, elset=Wire-14-Set-1
14
*Nset, nset=Wire-15-Set-1, instance=MP-1
415 436
*Elset, elset=Wire-15-Set-1
15
*Nset, nset=Wire-16-Set-1, instance=MP-1
440 461
*Elset, elset=Wire-16-Set-1
16
*Nset, nset=Wire-17-Set-1, instance=MP-1
465 486
*Elset, elset=Wire-17-Set-1
17
*Nset, nset=Wire-18-Set-1, instance=MP-1
490 511
*Elset, elset=Wire-18-Set-1
18
*Nset, nset=Wire-19-Set-1, instance=MP-1
540 561
*Elset, elset=Wire-19-Set-1
19
*Nset, nset=Wire-20-Set-1, instance=MP-1
565 586
*Elset, elset=Wire-20-Set-1
20
*Nset, nset=Wire-21-Set-1, instance=MP-1
590 611
*Elset, elset=Wire-21-Set-1
21
*Nset, nset=Wire-22-Set-1, instance=MP-1
615 636
*Elset, elset=Wire-22-Set-1
22
*Nset, nset=Wire-23-Set-1, instance=MP-1
640 661
*Elset, elset=Wire-23-Set-1
23
*Nset, nset=Wire-24-Set-1, instance=MP-1
665 686
*Elset, elset=Wire-24-Set-1
24
*Nset, nset=Wire-25-Set-1, instance=MP-1
715 736
*Elset, elset=Wire-25-Set-1
25
*Nset, nset=Wire-26-Set-1, instance=MP-1
740 761
*Elset, elset=Wire-26-Set-1
26
*Nset, nset=Wire-27-Set-1, instance=MP-1
765 786
*Elset, elset=Wire-27-Set-1
27
*Nset, nset=Wire-28-Set-1, instance=MP-1
790 811
*Elset, elset=Wire-28-Set-1
28
*Nset, nset=Wire-29-Set-1, instance=MP-1
815 836
*Elset, elset=Wire-29-Set-1
29
*Nset, nset=Wire-30-Set-1, instance=MP-1
840 861
*Elset, elset=Wire-30-Set-1
30
*Nset, nset=Wire-31-Set-1, instance=MP-1
890 911
*Elset, elset=Wire-31-Set-1
31
*Nset, nset=Wire-32-Set-1, instance=MP-1
915 936
*Elset, elset=Wire-32-Set-1
32
*Nset, nset=Wire-33-Set-1, instance=MP-1
940 961
*Elset, elset=Wire-33-Set-1
33
*Nset, nset=Wire-34-Set-1, instance=MP-1
965 986
*Elset, elset=Wire-34-Set-1
34
*Nset, nset=Wire-35-Set-1, instance=MP-1
990 1011
*Elset, elset=Wire-35-Set-1
35
*Nset, nset=Wire-36-Set-1, instance=MP-1
1015 1036
*Elset, elset=Wire-36-Set-1
36
*Nset, nset=Wire-37-Set-1, instance=MP-1
1065 1086
*Elset, elset=Wire-37-Set-1
37
*Nset, nset=Wire-38-Set-1, instance=MP-1
1090 1111
*Elset, elset=Wire-38-Set-1
38
*Nset, nset=Wire-39-Set-1, instance=MP-1
1115 1136
*Elset, elset=Wire-39-Set-1
39
*Nset, nset=Wire-40-Set-1, instance=MP-1
1140 1161
*Elset, elset=Wire-40-Set-1
40
*Nset, nset=Wire-41-Set-1, instance=MP-1
1165 1186
*Elset, elset=Wire-41-Set-1
41
*Nset, nset=Wire-42-Set-1, instance=MP-1
1190 1211
*Elset, elset=Wire-42-Set-1
42
*Nset, nset=Wire-43-Set-1, instance=MP-1
1240 1261
*Elset, elset=Wire-43-Set-1
43
*Nset, nset=Wire-44-Set-1, instance=MP-1
1265 1286
*Elset, elset=Wire-44-Set-1
44
*Nset, nset=Wire-45-Set-1, instance=MP-1
1290 1311
*Elset, elset=Wire-45-Set-1
45
*Nset, nset=Wire-46-Set-1, instance=MP-1
1315 1336
*Elset, elset=Wire-46-Set-1
46
*Nset, nset=Wire-47-Set-1, instance=MP-1
1340 1361
*Elset, elset=Wire-47-Set-1
47
*Nset, nset=Wire-48-Set-1, instance=MP-1
1365 1386
*Elset, elset=Wire-48-Set-1
48
*Nset, nset=Wire-49-Set-1, instance=MP-1
1415 1436
*Elset, elset=Wire-49-Set-1
49
*Nset, nset=Wire-50-Set-1, instance=MP-1
1440 1461
*Elset, elset=Wire-50-Set-1
50
*Nset, nset=Wire-51-Set-1, instance=MP-1
1465 1486
*Elset, elset=Wire-51-Set-1
51
*Nset, nset=Wire-52-Set-1, instance=MP-1
1490 1511
*Elset, elset=Wire-52-Set-1
52
*Nset, nset=Wire-53-Set-1, instance=MP-1
1515 1536
*Elset, elset=Wire-53-Set-1
53
*Nset, nset=Wire-54-Set-1, instance=MP-1
1540 1561
*Elset, elset=Wire-54-Set-1
54
*Nset, nset=Wire-55-Set-1, instance=MP-1
23 178
*Elset, elset=Wire-55-Set-1
55
*Nset, nset=Wire-56-Set-1, instance=MP-1
198 353
*Elset, elset=Wire-56-Set-1
56
*Nset, nset=Wire-57-Set-1, instance=MP-1
373 528
*Elset, elset=Wire-57-Set-1
57
*Nset, nset=Wire-58-Set-1, instance=MP-1
548 703
*Elset, elset=Wire-58-Set-1
58
*Nset, nset=Wire-59-Set-1, instance=MP-1
723 878
*Elset, elset=Wire-59-Set-1
59
*Nset, nset=Wire-60-Set-1, instance=MP-1
898 1053
*Elset, elset=Wire-60-Set-1
60
*Nset, nset=Wire-61-Set-1, instance=MP-1
1073 1228
*Elset, elset=Wire-61-Set-1
61
*Nset, nset=Wire-62-Set-1, instance=MP-1
1248 1403
*Elset, elset=Wire-62-Set-1
62
*Nset, nset=Wire-63-Set-1, instance=MP-1
48 203
*Elset, elset=Wire-63-Set-1
63
*Nset, nset=Wire-64-Set-1, instance=MP-1
223 378
*Elset, elset=Wire-64-Set-1
64
*Nset, nset=Wire-65-Set-1, instance=MP-1
398 553
*Elset, elset=Wire-65-Set-1
65
*Nset, nset=Wire-66-Set-1, instance=MP-1
573 728
*Elset, elset=Wire-66-Set-1
66
*Nset, nset=Wire-67-Set-1, instance=MP-1
748 903
*Elset, elset=Wire-67-Set-1
67
*Nset, nset=Wire-68-Set-1, instance=MP-1
923 1078
*Elset, elset=Wire-68-Set-1
68
*Nset, nset=Wire-69-Set-1, instance=MP-1
1098 1253
*Elset, elset=Wire-69-Set-1
69
*Nset, nset=Wire-70-Set-1, instance=MP-1
1273 1428
*Elset, elset=Wire-70-Set-1
70
*Nset, nset=Wire-71-Set-1, instance=MP-1
73 228
*Elset, elset=Wire-71-Set-1
71
*Nset, nset=Wire-72-Set-1, instance=MP-1
248 403
*Elset, elset=Wire-72-Set-1
72
*Nset, nset=Wire-73-Set-1, instance=MP-1
423 578
*Elset, elset=Wire-73-Set-1
73
*Nset, nset=Wire-74-Set-1, instance=MP-1
598 753
*Elset, elset=Wire-74-Set-1
74
*Nset, nset=Wire-75-Set-1, instance=MP-1
773 928
*Elset, elset=Wire-75-Set-1
75
*Nset, nset=Wire-76-Set-1, instance=MP-1
948 1103
*Elset, elset=Wire-76-Set-1
76
*Nset, nset=Wire-77-Set-1, instance=MP-1
1123 1278
*Elset, elset=Wire-77-Set-1
77
*Nset, nset=Wire-78-Set-1, instance=MP-1
1298 1453
*Elset, elset=Wire-78-Set-1
78
*Nset, nset=Wire-79-Set-1, instance=MP-1
98 253
*Elset, elset=Wire-79-Set-1
79
*Nset, nset=Wire-80-Set-1, instance=MP-1
273 428
*Elset, elset=Wire-80-Set-1
80
*Nset, nset=Wire-81-Set-1, instance=MP-1
448 603
*Elset, elset=Wire-81-Set-1
81
*Nset, nset=Wire-82-Set-1, instance=MP-1
623 778
*Elset, elset=Wire-82-Set-1
82
*Nset, nset=Wire-83-Set-1, instance=MP-1
798 953
*Elset, elset=Wire-83-Set-1
83
*Nset, nset=Wire-84-Set-1, instance=MP-1
973 1128
*Elset, elset=Wire-84-Set-1
84
*Nset, nset=Wire-85-Set-1, instance=MP-1
1148 1303
*Elset, elset=Wire-85-Set-1
85
*Nset, nset=Wire-86-Set-1, instance=MP-1
1323 1478
*Elset, elset=Wire-86-Set-1
86
*Nset, nset=Wire-87-Set-1, instance=MP-1
123 278
*Elset, elset=Wire-87-Set-1
87
*Nset, nset=Wire-88-Set-1, instance=MP-1
298 453
*Elset, elset=Wire-88-Set-1
88
*Nset, nset=Wire-89-Set-1, instance=MP-1
473 628
*Elset, elset=Wire-89-Set-1
89
*Nset, nset=Wire-90-Set-1, instance=MP-1
648 803
*Elset, elset=Wire-90-Set-1
90
*Nset, nset=Wire-91-Set-1, instance=MP-1
823 978
*Elset, elset=Wire-91-Set-1
91
*Nset, nset=Wire-92-Set-1, instance=MP-1
998 1153
*Elset, elset=Wire-92-Set-1
92
*Nset, nset=Wire-93-Set-1, instance=MP-1
1173 1328
*Elset, elset=Wire-93-Set-1
93
*Nset, nset=Wire-94-Set-1, instance=MP-1
1348 1503
*Elset, elset=Wire-94-Set-1
94
*Nset, nset=Wire-95-Set-1, instance=MP-1
148 303
*Elset, elset=Wire-95-Set-1
95
*Nset, nset=Wire-96-Set-1, instance=MP-1
323 478
*Elset, elset=Wire-96-Set-1
96
*Nset, nset=Wire-97-Set-1, instance=MP-1
498 653
*Elset, elset=Wire-97-Set-1
97
*Nset, nset=Wire-98-Set-1, instance=MP-1
673 828
*Elset, elset=Wire-98-Set-1
98
*Nset, nset=Wire-99-Set-1, instance=MP-1
848 1003
*Elset, elset=Wire-99-Set-1
99
*Nset, nset=Wire-100-Set-1, instance=MP-1
1023 1178
*Elset, elset=Wire-100-Set-1
100
*Nset, nset=Wire-101-Set-1, instance=MP-1
1198 1353
*Elset, elset=Wire-101-Set-1
101
*Nset, nset=Wire-102-Set-1, instance=MP-1
1373 1528
*Elset, elset=Wire-102-Set-1
102
*Nset, nset=Wire-103-Set-1, instance=MP-1
173 328
*Elset, elset=Wire-103-Set-1
103
*Nset, nset=Wire-104-Set-1, instance=MP-1
348 503
*Elset, elset=Wire-104-Set-1
104
*Nset, nset=Wire-105-Set-1, instance=MP-1
523 678
*Elset, elset=Wire-105-Set-1
105
*Nset, nset=Wire-106-Set-1, instance=MP-1
698 853
*Elset, elset=Wire-106-Set-1
106
*Nset, nset=Wire-107-Set-1, instance=MP-1
873 1028
*Elset, elset=Wire-107-Set-1
107
*Nset, nset=Wire-108-Set-1, instance=MP-1
1048 1203
*Elset, elset=Wire-108-Set-1
108
*Nset, nset=Wire-109-Set-1, instance=MP-1
1223 1378
*Elset, elset=Wire-109-Set-1
109
*Nset, nset=Wire-110-Set-1, instance=MP-1
1398 1553
*Elset, elset=Wire-110-Set-1
110
*End Assembly
*Connector Behavior, name=ConnSect-1
*Connector Elasticity, nonlinear, component=1
0.0, 0.0
0.3433890742599033, 1.033696
0.7042854122119024, 2.067392
1.088799472199753, 3.101088
1.5212653670459986, 4.134784
2.0276231225579977, 5.16848
2.648072550073266, 6.202176
3.4412226523272693, 7.235871999999999
4.505316319409758, 8.269568
6.041676388122141, 9.303264
8.471555192954838, 10.33696
127.07332789432257, 20.67392
*Connector Behavior, name=ConnSect-2
*Connector Elasticity, nonlinear, component=1
0.0, 0.0
0.3198318154318258, 1.04658
0.6557958840858191, 2.09316
1.0137027129530907, 3.1397399999999998
1.4152184303384274, 4.18632
1.8847640603780746, 5.2329
2.4596808361820877, 6.2794799999999995
3.1954824225977063, 7.32606
4.184447170700878, 8.37264
5.619132425636053, 9.41922
7.898578769527376, 10.4658
118.47868154291064, 20.9316
*Connector Behavior, name=ConnSect-3
*Connector Elasticity, nonlinear, component=1
0.0, 0.0
0.10292681508872192, 1.247412
0.21038524209870957, 2.494824
0.3258347715018317, 3.7422359999999997
0.4539310612017289, 4.989648
0.6032302917446941, 6.23706
0.7857770833652467, 7.484471999999999
1.0200510587310418, 8.731883999999999
1.3368016516324133, 9.979296
1.811034744605422, 11.226707999999999
2.598377177491784, 12.47412
38.97565766237676, 24.94824
*Connector Behavior, name=ConnSect-4
*Connector Elasticity, nonlinear, component=1
0.0, 0.0
0.1283008350583259, 1.083105
0.2623162254167255, 2.16621
0.4062265361426398, 3.249315
0.566065609746147, 4.33242
0.7526505214627832, 5.415525
0.9806219168240204, 6.49863
1.2730668822769076, 7.581734999999999
1.6663738642819226, 8.66484
2.248524106107652, 9.747945
3.194392193108797, 10.83105
47.915882896631956, 21.6621
*Connector Behavior, name=ConnSect-5
*Connector Elasticity, nonlinear, component=1
0.0, 0.0
0.26238698410452344, 1.075329
0.5375969340093434, 2.150658
0.8309638360515237, 3.225987
1.15837377961725, 4.301316
1.540424709673971, 5.376645
2.0074764324817806, 6.451974
2.6064665871672332, 7.527303000000001
3.413613303564489, 8.602632
4.595610371325165, 9.677961
6.489746738225222, 10.75329
97.34620107337832, 21.50658
*Connector Behavior, name=ConnSect-6
*Connector Elasticity, nonlinear, component=1
0.0, 0.0
0.2726963612076361, 1.077702
0.558816573175136, 2.155404
0.863742534420453, 3.2331060000000003
1.2042134767398238, 4.310808
1.6015824803616852, 5.38851
2.0874156325589865, 6.4662120000000005
2.71029828581959, 7.543914000000001
3.5494394251145422, 8.621616
4.776387359015644, 9.699318
6.7397544626146555, 10.77702
101.09631693921983, 21.55404
*Connector Behavior, name=ConnSect-7
*Connector Elasticity, nonlinear, component=1
0.0, 0.0
0.2579567262728233, 1.078463
0.5284820872475393, 2.156926
0.8168689964804798, 3.235389
1.138535953941755, 4.313852
1.513794413767755, 5.392315
1.9724601588677615, 6.470778
2.5608213036321104, 7.549241
3.3538698335178196, 8.627704
4.516325716394931, 9.706166999999999
6.3807383412495255, 10.78463
95.71107511874288, 21.56926
*Connector Behavior, name=ConnSect-8
*Connector Elasticity, nonlinear, component=1
0.0, 0.0
0.09177418178296648, 1.091313
0.18740609448286705, 2.182626
0.29072467441437766, 3.273939
0.4055902172694914, 4.365252
0.5399983638199046, 5.456565
0.7044237281661481, 6.547878
0.9149910329142585, 7.639191000000001
1.19712101877667, 8.730504
1.6154513286892325, 9.821817
2.2995904146227986, 10.91313
34.49385621934198, 21.82626
*Connector Behavior, name=ConnSect-9
*Connector Elasticity, nonlinear, component=1
0.0, 0.0
0.012384709862089949, 1.622757
0.02440669049974531, 3.245514
0.03845557785098208, 4.868271
0.0557038538318011, 6.491028
0.07606037343066419, 8.113785
0.10245098565064836, 9.736542
0.1362248895020457, 11.359299
0.18405935406917706, 12.982056
0.27718409910448827, 14.604813000000002
0.49392088840249926, 16.22757
7.408813326037489, 32.45514
*Connector Behavior, name=ConnSect-10
*Connector Elasticity, nonlinear, component=1
0.0, 0.0
0.1677247928455472, 1.059898
0.34315555240027606, 2.119796
0.5308978870743886, 3.179694
0.7393395935650915, 4.239592
0.9823574509937316, 5.29949
1.2790714390575886, 6.359388
1.6600594972260296, 7.419286
2.1733784524258226, 8.479184
2.9319844907149673, 9.539081999999999
4.158669617027044, 10.59898
62.380044255405664, 21.19796
*Connector Behavior, name=ConnSect-11
*Connector Elasticity, nonlinear, component=1
0.0, 0.0
0.04683398401539307, 1.255972
0.09525614586891606, 2.511944
0.1482745210523717, 3.7679160000000005
0.20781673811143264, 5.023888
0.2777338340820279, 6.27986
0.3639424903667532, 7.535832000000001
0.47415229346370324, 8.791804
0.6224921526154503, 10.047776
0.8502863784087822, 11.303748
1.2483254249673337, 12.55972
18.724881374510005, 25.11944
*Connector Behavior, name=ConnSect-12
*Connector Elasticity, nonlinear, component=1
0.0, 0.0
0.03914024091500323, 1.247191
0.07946220648591407, 2.494382
0.12393844372127205, 3.741573
0.17408729036105797, 4.988764
0.23315018552239053, 6.235955
0.3061718962271698, 7.483146
0.39937443943927065, 8.730337
0.524469833180774, 9.977528
0.7178610394475982, 11.224718999999999
1.0604607086861506, 12.47191
15.90691063029226, 24.94382
*Connector Behavior, name=ConnSect-13
*Connector Elasticity, nonlinear, component=1
0.0, 0.0
0.06040770131221507, 1.198128
0.12310023521422409, 2.396256
0.19134369722451083, 3.5943840000000002
0.2675288851605728, 4.792512
0.3568446118151769, 5.99064
0.46651741286041215, 7.1887680000000005
0.6068004222470336, 8.386896
0.7950809231260791, 9.585024
1.0791412933031097, 10.783152
1.5599453763570637, 11.98128
23.399180645355955, 23.96256
*Connector Behavior, name=ConnSect-14
*Connector Elasticity, nonlinear, component=1
0.0, 0.0
0.06262892384256702, 1.3567259999999999
0.12770384273608215, 2.7134519999999998
0.19808434444712475, 4.070178
0.2768310878309421, 5.4269039999999995
0.3687510616146028, 6.78363
0.4818067463929765, 8.140356
0.6268566357903183, 9.497081999999999
0.8241215982707217, 10.853807999999999
1.127540526795201, 12.210533999999999
1.6563654935453087, 13.56726
24.84548240317963, 27.13452
*Connector Behavior, name=ConnSect-15
*Connector Elasticity, nonlinear, component=1
0.0, 0.0
0.07691867722314782, 1.1933099999999999
0.15698789866291918, 2.3866199999999997
0.24361284886253998, 3.57993
0.33997930586338043, 4.7732399999999995
0.45266893721418455, 5.96655
0.59070505812997, 7.15986
0.7675088272662833, 8.35317
1.0053275764221326, 9.546479999999999
1.361788745271042, 10.73979
1.9567133858799934, 11.9331
29.3507007881999, 23.8662
*Connector Behavior, name=ConnSect-16
*Connector Elasticity, nonlinear, component=1
0.0, 0.0
0.34141856303904206, 0.7154142
0.7001571066211909, 1.4308284
1.0846307850442827, 2.1462426
1.5273263852577657, 2.8616568
2.0516391668934375, 3.577071
2.6987603632733226, 4.2924852
3.5195800592191517, 5.0078994
4.601755063049495, 5.7233136
6.1202229699119925, 6.438727800000001
8.451989269815385, 7.154142
126.77983904723078, 14.308284
*Connector Behavior, name=ConnSect-17
*Connector Elasticity, nonlinear, component=1
0.0, 0.0
0.36336059565655887, 0.7468402000000001
0.7453589205397293, 1.4936804000000001
1.1544163862708956, 2.2405206
1.6241538105532527, 2.9873608000000003
2.179873554268852, 3.734201
2.865107380785048, 4.4810412
3.734497877303511, 5.2278814
4.882138746324927, 5.9747216000000005
6.493086693808436, 6.721561800000001
8.967305184341967, 7.468402
134.5095777651295, 14.936804
*Connector Behavior, name=ConnSect-18
*Connector Elasticity, nonlinear, component=1
0.0, 0.0
0.35423090594122186, 0.8756929
0.7265342719620094, 1.7513858
1.124215341405943, 2.6270786999999998
1.5770817117299885, 3.5027716
2.1104232291691005, 4.3784645
2.766529214568436, 5.2541573999999995
3.6020574043504894, 6.129850299999999
4.713789094239473, 7.0055432
6.296734209172428, 7.8812361
8.766435785219073, 8.756929
131.4965367782861, 17.513858
*Connector Behavior, name=ConnSect-19
*Connector Elasticity, nonlinear, component=1
0.0, 0.0
0.0846724560688017, 1.137947
0.17288124581682496, 2.275894
0.26824369342648424, 3.413841
0.3741715045180172, 4.551788
0.498065710416995, 5.689735
0.6496464629890397, 6.827682
0.8437582437181845, 7.965629
1.1042223195545375, 9.103576
1.4918262604624033, 10.241522999999999
2.1303255925886333, 11.37947
31.9548838888295, 22.75894
*Connector Behavior, name=ConnSect-20
*Connector Elasticity, nonlinear, component=1
0.0, 0.0
0.0036891671584271535, 1.335687
0.006723075216541474, 2.671374
0.011567095725695253, 4.007061
0.018309358438273193, 5.342748
0.026920304208033485, 6.678435
0.03882979399350006, 8.014122
0.05354643235477852, 9.349809
0.07341547188843833, 10.685496
0.11607387932599522, 12.021183
0.2296747152286116, 13.35687
3.445120728429174, 26.71374
*Connector Behavior, name=ConnSect-21
*Connector Elasticity, nonlinear, component=1
0.0, 0.0
0.026770105705509195, 1.245519
0.054071861086413264, 2.491038
0.0847876799525693, 3.736557
0.11982173418800812, 4.982076
0.16139061699504964, 6.227595
0.2131765904778149, 7.473114
0.27902253350475803, 8.718633
0.36692657886305824, 9.964152
0.5057553789811209, 11.209671
0.761771880206652, 12.45519
11.42657820309978, 24.91038
*Connector Behavior, name=ConnSect-22
*Connector Elasticity, nonlinear, component=1
0.0, 0.0
0.16873926142579876, 1.0399889999999998
0.34521879570093006, 2.0799779999999997
0.5341165160643868, 3.119967
0.7438918692059815, 4.159955999999999
0.9885204053716734, 5.199945
1.2872130901087075, 6.239934
1.6707096074242145, 7.279922999999999
2.187138161389157, 8.319911999999999
2.9498027288354933, 9.359900999999999
4.181464319117367, 10.39989
62.72196478676051, 20.79978
*Connector Behavior, name=ConnSect-23
*Connector Elasticity, nonlinear, component=1
0.0, 0.0
0.20394658349687234, 1.039334
0.41744016925804317, 2.078668
0.6454973481595516, 3.1180019999999997
0.8990941569209099, 4.157336
1.194746801047586, 5.19667
1.55581597937271, 6.236003999999999
2.0195069373585284, 7.2753380000000005
2.6445440016686916, 8.314672
3.5663583548739552, 9.354006
5.052112392149866, 10.39334
75.78168588224798, 20.78668
*Connector Behavior, name=ConnSect-24
*Connector Elasticity, nonlinear, component=1
0.0, 0.0
0.2652619150467217, 1.004024
0.5434470949694514, 2.008048
0.8402582170674577, 3.0120720000000003
1.1735661973943934, 4.016096
1.5635250019840896, 5.02012
2.041273401118815, 6.024144000000001
2.6531913317739964, 7.028168000000001
3.4753140062093735, 8.032192
4.673732910305262, 9.036216
6.586711970157921, 10.04024
98.80067955236882, 20.08048
*Connector Behavior, name=ConnSect-25
*Connector Elasticity, nonlinear, component=1
0.0, 0.0
0.3419824133743532, 0.9491628999999999
0.7013389404164627, 1.8983257999999998
1.0847343219211325, 2.8474887
1.5188258839771152, 3.7966515999999997
2.0286280778236687, 4.7458145
2.6546779554337263, 5.6949774
3.4535754821263254, 6.644140299999999
4.521082155406475, 7.593303199999999
6.052925018593669, 8.5424661
8.461762918159366, 9.491629
126.92644377239048, 18.983258
*Connector Behavior, name=ConnSect-26
*Connector Elasticity, nonlinear, component=1
0.0, 0.0
0.15258616258506663, 1.0426069999999998
0.31209056032821536, 2.0852139999999997
0.48303882067557424, 3.127821
0.6729300366714597, 4.170427999999999
0.8944927685661241, 5.213035
1.1650945816654712, 6.255642
1.5123945195227861, 7.298249
1.9796585547737777, 8.340855999999999
2.6698518195189536, 9.383462999999999
3.7856519338674843, 10.42607
56.784779008012265, 20.85214
*Connector Behavior, name=ConnSect-27
*Connector Elasticity, nonlinear, component=1
0.0, 0.0
0.3328204547869973, 1.0601889999999998
0.6825436867075041, 2.1203779999999997
1.0550066508585587, 3.180567
1.4727437519468367, 4.240755999999999
1.961216185009107, 5.300945
2.559217973612249, 6.361134
3.324412682559341, 7.421322999999999
4.352882388047874, 8.481511999999999
5.843250546604395, 9.541701
8.208567160181701, 10.60189
123.12850740272552, 21.20378
*Connector Behavior, name=ConnSect-28
*Connector Elasticity, nonlinear, component=1
0.0, 0.0
0.26336756491218694, 1.0739610000000002
0.5396137203206308, 2.1479220000000003
0.83408500358928, 3.2218830000000005
1.162787084467709, 4.295844000000001
1.5463757154066116, 5.369805
2.015334612224251, 6.443766000000001
2.6167361647821963, 7.517727000000001
3.4270601463504136, 8.591688000000001
4.613418423105031, 9.665649
6.514129345305264, 10.73961
97.71194017957896, 21.47922
*Connector Behavior, name=ConnSect-29
*Connector Elasticity, nonlinear, component=1
0.0, 0.0
0.2277723979204893, 1.020767
0.4663326035370119, 2.041534
0.7210569310700521, 3.062301
1.005991580314003, 4.083068
1.3388451770879328, 5.103835
1.7461617244407535, 6.124602
2.268676325911656, 7.145369
2.971867797896266, 8.166136
4.004330839961767, 9.186903000000001
5.663023330271244, 10.20767
84.94534995406866, 20.41534
*Connector Behavior, name=ConnSect-30
*Connector Elasticity, nonlinear, component=1
0.0, 0.0
0.2857737854355946, 0.9316831999999999
0.5856121788383462, 1.8633663999999999
0.9057872375706211, 2.7950496
1.2679940846282989, 3.7267327999999997
1.6931504069361836, 4.658416
2.2152600286062807, 5.5900992
2.882507396861911, 6.521782399999999
3.775219083763659, 7.4534655999999995
5.065340083092451, 8.3851488
7.108424906618893, 9.316832
106.6263735992834, 18.633664
*Connector Behavior, name=ConnSect-31
*Connector Elasticity, nonlinear, component=1
0.0, 0.0
0.32114461646415293, 0.8360606
0.658373610349372, 1.6721212
1.0189222666667774, 2.5081818
1.4307051606010646, 3.3442424
1.9161796080879867, 4.180303
2.5140901561826468, 5.0163636
3.2756332075223327, 5.8524242
4.288175841793418, 6.6884848
5.73224329855293, 7.524545400000001
7.9901330173015594, 8.360606
119.85199525952339, 16.721212
*Connector Behavior, name=ConnSect-32
*Connector Elasticity, nonlinear, component=1
0.0, 0.0
0.23631017029401846, 1.007473
0.4838656968786381, 2.014946
0.7481846114387736, 3.022419
1.0444963118061423, 4.029892
1.3909269182477146, 5.037365
1.8151644326280802, 6.044838
2.35910527408123, 7.052311
3.090527607128024, 8.059784
4.162165569141507, 9.067257000000001
5.880789249204099, 10.07473
88.21183873806149, 20.14946
*Connector Behavior, name=ConnSect-33
*Connector Elasticity, nonlinear, component=1
0.0, 0.0
0.07491386440960923, 1.0708410000000002
0.15280711522791535, 2.1416820000000003
0.2374234281887766, 3.212523
0.33163400075864047, 4.283364000000001
0.44215710659045726, 5.354205
0.5775136378360912, 6.425046
0.7505762914661318, 7.495887000000001
0.9814149962039664, 8.566728000000001
1.3235221558716148, 9.637569000000001
1.8840243865270168, 10.70841
28.26036579790525, 21.41682
*Connector Behavior, name=ConnSect-34
*Connector Elasticity, nonlinear, component=1
0.0, 0.0
0.021921953248238424, 1.384731
0.0441599877376575, 2.769462
0.06918784038134618, 4.154193
0.09816320925892796, 5.538924
0.1324013192061102, 6.923654999999999
0.17548451069160365, 8.308386
0.23047996364766732, 9.693117
0.30584535124944523, 11.077848
0.43173837184440345, 12.462579
0.6825125456089154, 13.847309999999998
10.23768818413373, 27.69462
*Connector Behavior, name=ConnSect-35
*Connector Elasticity, nonlinear, component=1
0.0, 0.0
-0.0022675229160995514, 1.071332
-0.005577313118010352, 2.142664
-0.006803751375628053, 3.2139960000000003
-0.007085770334924746, 4.285328
-0.006004860324537731, 5.35666
-0.003604827156777901, 6.427992000000001
-0.0018189466288731637, 7.499324
-0.0036983280438107613, 8.570656
-0.0032320372156391386, 9.641988
0.014610207017540233, 10.71332
0.2191531052631035, 21.42664
*Connector Behavior, name=ConnSect-36
*Connector Elasticity, nonlinear, component=1
0.0, 0.0
0.14504299542750232, 1.1049
0.2966740430565551, 2.2098
0.4591535252984613, 3.3146999999999998
0.6394964293576777, 4.4196
0.8497870294377208, 5.5245
1.1066075239796191, 6.6293999999999995
1.4362767979037017, 7.734299999999999
1.8805140280164778, 8.8392
2.5383898173458874, 9.9441
3.607199469115585, 11.049
54.107992036733776, 22.098
*Connector Behavior, name=ConnSect-37
*Connector Elasticity, nonlinear, component=1
0.0, 0.0
0.34994045563507825, 0.9717984
0.7177357474574819, 1.9435968
1.1099707626271993, 2.9153952
1.5534186968579888, 3.8871936
2.0738715829793364, 4.858992
2.7126711211167276, 5.8307904
3.5280402516946197, 6.8025888
4.61842748336494, 7.7743872
6.184126250445843, 8.7461856
8.64759786054492, 9.717984
129.7139679081738, 19.435968
*Connector Behavior, name=ConnSect-38
*Connector Elasticity, nonlinear, component=1
0.0, 0.0
0.3682581154862419, 0.8721054
0.7554340118076652, 1.7442108
1.1690225801430643, 2.6163162
1.6401139146182686, 3.4884216
2.1950869995635003, 4.360527
2.877771621569991, 5.2326324
3.7466277717612684, 6.1047378000000005
4.901657230220735, 6.9768432
6.541975890286267, 7.8489486
9.09361056983471, 8.721054
136.40415854752064, 17.442108
*Connector Behavior, name=ConnSect-39
*Connector Elasticity, nonlinear, component=1
0.0, 0.0
0.37365378375397995, 0.8847537000000001
0.7665486918995157, 1.7695074000000002
1.1861425446113572, 2.6542611000000003
1.6636888904031366, 3.5390148000000003
2.226062206318602, 4.4237685
2.917658712249249, 5.3085222000000005
3.797985555138439, 6.193275900000001
4.968812572769821, 7.078029600000001
6.632235599681735, 7.962783300000001
9.220797219313681, 8.847537
138.31195828970522, 17.695074
*Connector Behavior, name=ConnSect-40
*Connector Elasticity, nonlinear, component=1
0.0, 0.0
0.07713421837252099, 1.2071
0.15743418771307915, 2.4142
0.24426997697446495, 3.6213
0.3408863631193526, 4.8284
0.4538343637250364, 6.0355
0.5922031778027304, 7.2426
0.7694707892369479, 8.4497
1.0081385698867962, 9.6568
1.3663813297171146, 10.8639
1.9656374934129417, 12.071
29.484562401194125, 24.142
*Connector Behavior, name=ConnSect-41
*Connector Elasticity, nonlinear, component=1
0.0, 0.0
0.06739817763445899, 1.244569
0.137461356644053, 2.489138
0.21338501028367318, 3.7337070000000003
0.29806786187691614, 4.978276
0.397115400119219, 6.222845
0.5186650014366023, 7.467414000000001
0.6743658013874665, 8.711983
0.8843264367897063, 9.956552
1.2019684800179675, 11.201121
1.7410343571100384, 12.44569
26.115515356650576, 24.89138
*Connector Behavior, name=ConnSect-42
*Connector Elasticity, nonlinear, component=1
0.0, 0.0
0.08443934348179027, 1.121905
0.17238899090443738, 2.24381
0.2675152791198343, 3.3657150000000002
0.3732253026100807, 4.48762
0.49691854655975476, 5.609525
0.648268687655218, 6.7314300000000005
0.8420494850724936, 7.8533349999999995
1.1018218356184661, 8.97524
1.4879788795951754, 10.097145
2.1229324920568615, 11.21905
31.843987380852923, 22.4381
*Connector Behavior, name=ConnSect-43
*Connector Elasticity, nonlinear, component=1
0.0, 0.0
0.08922320375859272, 1.034465
0.1821239675336983, 2.06893
0.2826893251040019, 3.103395
0.3946610013372265, 4.13786
0.5258963574306108, 5.172325
0.6865075556561351, 6.20679
0.8920409891288728, 7.241255
1.1664700286928564, 8.27572
1.5719261136837304, 9.310185
2.2310970234684646, 10.34465
33.46645535202697, 20.6893
*Connector Behavior, name=ConnSect-44
*Connector Elasticity, nonlinear, component=1
0.0, 0.0
0.08509997314831708, 1.110791
0.1737342608976178, 2.221582
0.26961020921589807, 3.3323729999999996
0.376180796592962, 4.443164
0.5009077722206712, 5.553955
0.653526367386803, 6.664745999999999
0.8489188621751964, 7.775537
1.1107142199762166, 8.886328
1.4995601668488234, 9.997119000000001
2.1379707322921604, 11.10791
32.069560984382406, 22.21582
*Connector Behavior, name=ConnSect-45
*Connector Elasticity, nonlinear, component=1
0.0, 0.0
0.11374043424439151, 1.1361890000000001
0.23249902369570918, 2.2723780000000002
0.36015768273500726, 3.408567
0.5018549563828856, 4.5447560000000005
0.6672323797829449, 5.680945
0.8693314885022119, 6.817134
1.1285446089459583, 7.953323
1.4774786541238427, 9.089512000000001
1.9955699099227786, 10.225701
2.842909889295697, 11.36189
42.64364833943546, 22.72378
*Connector Behavior, name=ConnSect-46
*Connector Elasticity, nonlinear, component=1
0.0, 0.0
-0.00022618932504769873, 1.6307649999999998
-0.0015590200064252713, 3.2615299999999996
-0.001512602239017724, 4.892295
0.00037099468386259105, 6.523059999999999
0.0030032117592782015, 8.153825
0.007831450261619466, 9.78459
0.013738651887251763, 11.415355
0.022995704966888297, 13.046119999999998
0.05931674877501791, 14.676884999999999
0.18416854800307192, 16.30765
2.762528220046079, 32.6153
*Connector Behavior, name=ConnSect-47
*Connector Elasticity, nonlinear, component=1
0.0, 0.0
0.07842420018278062, 1.114802
0.16004554709070362, 2.229604
0.24849925466696732, 3.344406
0.3468394424999133, 4.459208
0.46200977521948516, 5.57401
0.6029869837220758, 6.688812
0.7833852578187361, 7.8036140000000005
1.0248585749650374, 8.918416
1.3838271843269467, 10.033218000000002
1.974695042008534, 11.14802
29.62042563012801, 22.29604
*Connector Behavior, name=ConnSect-48
*Connector Elasticity, nonlinear, component=1
0.0, 0.0
0.10970469702442642, 1.066723
0.22416050342144445, 2.133446
0.34743439755402505, 3.200169
0.4844653813051991, 4.266892
0.6446551560657099, 5.333615
0.8404979598708451, 6.400338
1.0915030725300312, 7.467060999999999
1.4282313350122422, 8.533784
1.9264656293671578, 9.600507
2.736689057201147, 10.66723
41.050335858017206, 21.33446
*Connector Behavior, name=ConnSect-49
*Connector Elasticity, nonlinear, component=1
0.0, 0.0
0.25466515580774285, 1.073957
0.5217036596150137, 2.147914
0.8064114808803424, 3.221871
1.1240257299505174, 4.295828
1.4945831208024174, 5.369785
1.9475366570986807, 6.443742
2.5285957963205874, 7.517699
3.311744367238134, 8.591656
4.4600511319004, 9.665613
6.3023349503055215, 10.73957
94.53502425458282, 21.47914
*Connector Behavior, name=ConnSect-50
*Connector Elasticity, nonlinear, component=1
0.0, 0.0
0.24309541913680732, 1.076582
0.49789476179284975, 2.153164
0.7696142711210996, 3.229746
1.0724049934651703, 4.306328
1.4255044516175985, 5.38291
1.8569792155176401, 6.459492
2.410764864180237, 7.536073999999999
3.1575627508573234, 8.612656
4.255137464497238, 9.689238
6.01976178586483, 10.76582
90.29642678797245, 21.53164
*Connector Behavior, name=ConnSect-51
*Connector Elasticity, nonlinear, component=1
0.0, 0.0
0.07565661690023262, 1.187453
0.15439589333254844, 2.374906
0.2396289346506819, 3.562359
0.33445867302361876, 4.749812
0.44538282963912934, 5.937265
0.5812678864458576, 7.124718
0.7552857277914882, 8.312171000000001
0.9892272646538913, 9.499624
1.339778391411528, 10.687076999999999
1.924702519318089, 11.87453
28.870537789771333, 23.74906
*Connector Behavior, name=ConnSect-52
*Connector Elasticity, nonlinear, component=1
0.0, 0.0
0.07391739018203225, 1.252577
0.15084435290191323, 2.505154
0.23400498321279883, 3.7577309999999997
0.3266465864726342, 5.010308
0.4348894799477421, 6.262885
0.5676111686625518, 7.515461999999999
0.7377225847449154, 8.768039
0.9673872409621254, 10.020616
1.3142147508915514, 11.273193
1.9003733177669346, 12.52577
28.50559976650402, 25.05154
*Connector Behavior, name=ConnSect-53
*Connector Elasticity, nonlinear, component=1
0.0, 0.0
0.37704685382777825, 0.9610563000000001
0.7735331018920988, 1.9221126000000002
1.1963614815613255, 2.8831689000000003
1.67525649885647, 3.8442252000000003
2.2377975983545184, 4.8052815
2.9285915661603212, 5.7663378000000005
3.809509798884392, 6.727394100000001
4.9859663704410195, 7.688450400000001
6.668585119768977, 8.6495067
9.305729763582349, 9.610563
139.58594645373523, 19.221126
*Connector Behavior, name=ConnSect-54
*Connector Elasticity, nonlinear, component=1
0.0, 0.0
0.32093234040075913, 0.9754129
0.6580190529348329, 1.9508258
1.0175578790949658, 2.9262387000000003
1.4233929687179625, 3.9016516
1.8993261619471014, 4.8770645
2.4832520284689963, 5.852477400000001
3.2293202821165323, 6.8278903
4.228329635225236, 7.8033032
5.669050733558834, 8.7787161
7.945550023578107, 9.754129
119.18325035367161, 19.508258
*Connector Behavior, name=ConnSect-55
*Connector Elasticity, nonlinear, component=1
0.0, 0.0
0.025980900772992754, 1.4185
0.05250050890026614, 2.837
0.0819734123069793, 4.2555
0.11587634617171716, 5.674
0.15574192730127834, 7.092499999999999
0.2057029450952541, 8.511
0.26964426069753245, 9.9295
0.3576968811103143, 11.348
0.5034996866015717, 12.7665
0.7894993905210868, 14.184999999999999
11.842490857816301, 28.37
*Connector Behavior, name=ConnSect-56
*Connector Elasticity, nonlinear, component=1
0.0, 0.0
0.1126596635003807, 1.085485
0.2302377652085852, 2.17097
0.3567678140825592, 3.2564550000000003
0.49735361244529486, 4.34194
0.6616050814045593, 5.427425
0.8623775647720322, 6.512910000000001
1.1197750427527353, 7.598395000000001
1.4654759434051812, 8.68388
1.9774484098888934, 9.769365
2.811108424793929, 10.85485
42.16662637190893, 21.7097
*Connector Behavior, name=ConnSect-57
*Connector Elasticity, nonlinear, component=1
0.0, 0.0
0.1405088187311776, 1.075404
0.28734837542288005, 2.150808
0.44483243982540444, 3.2262119999999994
0.6197239417815581, 4.301616
0.8237880683736876, 5.37702
1.073051753337495, 6.452423999999999
1.3929209671914577, 7.5278279999999995
1.8233915034215897, 8.603232
2.460169780533761, 9.678636000000001
3.4929352113977075, 10.75404
52.39402817096561, 21.50808
*Connector Behavior, name=ConnSect-58
*Connector Elasticity, nonlinear, component=1
0.0, 0.0
0.10526132427912671, 1.077344
0.2150563886971213, 2.154688
0.33337862987536937, 3.2320320000000002
0.46489734813803807, 4.309376
0.618660997133702, 5.38672
0.8066689770203084, 6.4640640000000005
1.047599216690287, 7.541408000000001
1.3707924517802894, 8.618752
1.849338732426986, 9.696096
2.6288445224054158, 10.77344
39.43266783608124, 21.54688
*Connector Behavior, name=ConnSect-59
*Connector Elasticity, nonlinear, component=1
0.0, 0.0
0.10988137546519283, 1.0794549999999998
0.2245340874651447, 2.1589099999999997
0.3479860970401205, 3.2383649999999995
0.4851796984439716, 4.317819999999999
0.6455170660046861, 5.397275
0.8415284537477419, 6.476729999999999
1.0927773837465793, 7.556184999999999
1.4300293696578592, 8.635639999999999
1.929374848259613, 9.715095
2.742352371569723, 10.79455
41.13528557354584, 21.5891
*Connector Behavior, name=ConnSect-60
*Connector Elasticity, nonlinear, component=1
0.0, 0.0
0.37640274967998266, 0.9234156
0.772207640693523, 1.8468312
1.194600699818693, 2.7702468000000002
1.6741603030823171, 3.6936624
2.238190354546532, 4.617078
2.9313151026144624, 5.5404936000000005
3.814386436715722, 6.463909200000001
4.991294117644429, 7.3873248
6.668866262771189, 8.3107404
9.288672008551657, 9.234156
139.33008012827486, 18.468312
*Connector Behavior, name=ConnSect-61
*Connector Elasticity, nonlinear, component=1
0.0, 0.0
0.37434241676237434, 0.9425874999999999
0.767960591474548, 1.8851749999999998
1.1878664372488856, 2.8277625
1.6640109242871404, 3.7703499999999996
2.223640476586297, 4.7129375
2.9111182084307075, 5.655525
3.7875009002164006, 6.598112499999999
4.956910270266235, 7.540699999999999
6.627431721426547, 8.4832875
9.242396336048841, 9.425875
138.63594504073262, 18.85175
*Connector Behavior, name=ConnSect-62
*Connector Elasticity, nonlinear, component=1
0.0, 0.0
0.11896431715285871, 1.075115
0.24315970222232863, 2.15023
0.3767087764572352, 3.225345
0.525095674674958, 4.30046
0.6984264473430812, 5.375575
0.9102646436076611, 6.45069
1.181901097879745, 7.525805000000001
1.5468016499653459, 8.60092
2.0868262799922377, 9.676035
2.9646189068444073, 10.75115
44.46928360266611, 21.5023
*Connector Behavior, name=ConnSect-63
*Connector Elasticity, nonlinear, component=1
0.0, 0.0
0.01398154608978075, 1.480171
0.027888963813893497, 2.960342
0.04388038632896496, 4.440513
0.0630606473350781, 5.920684
0.08574191269872244, 7.400855
0.11493165402498562, 8.881026
0.15227798030537087, 10.361197
0.20517607481451705, 11.841368
0.30187491574906744, 13.321539000000001
0.516870422870852, 14.80171
7.753056343062781, 29.60342
*Connector Behavior, name=ConnSect-64
*Connector Elasticity, nonlinear, component=1
0.0, 0.0
0.37802652514074, 0.9631795999999999
0.7755511614959687, 1.9263591999999998
1.199471444124356, 2.8895387999999995
1.679545093793422, 3.8527183999999997
2.243441413156688, 4.815898
2.9358695610426366, 5.779077599999999
3.8188864709809422, 6.7422572
4.998221411369741, 7.705436799999999
6.685020052827895, 8.6686164
9.328796877525747, 9.631796
139.9319531628862, 19.263592
*Connector Behavior, name=ConnSect-65
*Connector Elasticity, nonlinear, component=1
0.0, 0.0
0.24600049073342234, 1.0371460000000001
0.5038367453380488, 2.0742920000000002
0.778936519054696, 3.1114380000000006
1.0866647789953277, 4.1485840000000005
1.446106907678768, 5.18573
1.885916426545009, 6.222876000000001
2.4499261053279042, 7.260022000000001
3.2091132015921175, 8.297168000000001
4.321520391386002, 9.334314000000001
6.105394568294287, 10.37146
91.5809185244143, 20.74292
*Connector Behavior, name=ConnSect-66
*Connector Elasticity, nonlinear, component=1
0.0, 0.0
0.27558442525332794, 1.0446170000000001
0.5647294528898783, 2.0892340000000003
0.8729970431886613, 3.133851
1.218184843310155, 4.1784680000000005
1.621550036361441, 5.223085
2.115204988513142, 6.267702
2.7477185358293355, 7.3123190000000005
3.5986618604511023, 8.356936000000001
4.840024339500815, 9.401553
6.822568830102682, 10.44617
102.33853245154023, 20.89234
*Connector Behavior, name=ConnSect-67
*Connector Elasticity, nonlinear, component=1
0.0, 0.0
0.024064240733423503, 1.255109
0.04852070560446009, 2.510218
0.07620550150022609, 3.765327
0.10792379725899082, 5.020436
0.1456322115700459, 6.275545
0.1927461380546447, 7.530654
0.2525990203139372, 8.785763
0.33251275453949347, 10.040872
0.4600079410010949, 11.295981000000001
0.6991279224166647, 12.55109
10.48691883624997, 25.10218
*Connector Behavior, name=ConnSect-68
*Connector Elasticity, nonlinear, component=1
0.0, 0.0
0.31638865038985386, 0.6220854
0.6487189966719598, 1.2441708
1.0056886821985245, 1.8662562
1.419359032297507, 2.4883416
1.91089857253246, 3.110427
2.518730761948973, 3.7325124
3.287950821686536, 4.3545978
4.296702682040632, 4.9766832
5.700841429643333, 5.5987686000000005
7.838833844289184, 6.220854
117.58250766433775, 12.441708
*Connector Behavior, name=ConnSect-69
*Connector Elasticity, nonlinear, component=1
0.0, 0.0
0.3361711060279049, 0.6441091
0.6893978570587933, 1.2882182
1.0685616143746302, 1.9323273
1.5071171219460666, 2.5764364
2.0278050214983523, 3.2205455
2.6712461840361357, 3.8646546
3.485769557300955, 4.5087637
4.554898478090763, 5.1528728
6.043758476153016, 5.7969819000000005
8.310687262564898, 6.441091
124.66030893847346, 12.882182
*Connector Behavior, name=ConnSect-70
*Connector Elasticity, nonlinear, component=1
0.0, 0.0
0.019551910099835368, 1.211974
0.039246933738468215, 2.423948
0.06200195912242634, 3.635922
0.08824782526062336, 4.847896
0.11971910680586006, 6.05987
0.15920237274258398, 7.271844
0.2091148417093791, 8.483818
0.2748427868937142, 9.695792
0.37986676034051925, 10.907766
0.5786788096884266, 12.11974
8.680182145326398, 24.23948
*Connector Behavior, name=ConnSect-71
*Connector Elasticity, nonlinear, component=1
0.0, 0.0
0.35374745493754745, 0.8555388
0.7255407399497926, 1.7110776
1.122837420552969, 2.5666164
1.5758788504172117, 3.4221552
2.109804918291047, 4.277694
2.766890684142709, 5.1332328
3.6032209754921496, 5.988771600000001
4.71469946205616, 6.8443104
6.294170161709189, 7.6998492
8.753224974498153, 8.555388
131.2983746174723, 17.110776
*Connector Behavior, name=ConnSect-72
*Connector Elasticity, nonlinear, component=1
0.0, 0.0
0.051529968914110214, 1.2452489999999998
0.10489175110706128, 2.4904979999999997
0.16315785615006462, 3.735747
0.2284489164594561, 4.980995999999999
0.3050457780773286, 6.226245
0.3993467180407606, 7.471494
0.5199522638577037, 8.716743
0.682245081407018, 9.961991999999999
0.9300666715716943, 11.207241
1.3586448039859533, 12.45249
20.3796720597893, 24.90498
*Connector Behavior, name=ConnSect-73
*Connector Elasticity, nonlinear, component=1
0.0, 0.0
0.0657626151223667, 1.1663029999999999
0.13408234735834412, 2.3326059999999997
0.20835128452745266, 3.498909
0.2911108822445385, 4.6652119999999995
0.38811009289929643, 5.831515
0.5070639963378198, 6.997818
0.659219513181597, 8.164121
0.863125897012651, 9.330423999999999
1.1688395898090675, 10.496726999999998
1.6804476035758853, 11.66303
25.20671405363828, 23.32606
*Connector Behavior, name=ConnSect-74
*Connector Elasticity, nonlinear, component=1
0.0, 0.0
0.2486944867996499, 1.025346
0.5093701474834234, 2.050692
0.7875285518821329, 3.076038
1.0990590817527846, 4.101384
1.4631316298618913, 5.12673
1.9087910186499357, 6.152076
2.480125112924725, 7.177422
3.2487176940776408, 8.202768
4.373542033135891, 9.228114000000001
6.175426533445716, 10.25346
92.63139800168574, 20.50692
*Connector Behavior, name=ConnSect-75
*Connector Elasticity, nonlinear, component=1
0.0, 0.0
0.37258883821778, 0.7912909
0.7643659046152607, 1.5825818
1.1835100303869694, 2.3738727
1.6633840277791023, 3.1651636
2.230264217359945, 3.9564545000000004
2.9286067001521587, 4.7477454
3.8154202047735453, 5.5390363
4.988685832358897, 6.3303272
6.6408340353518724, 7.121618100000001
9.187014074996114, 7.912909000000001
137.8052111249417, 15.825818
*Connector Behavior, name=ConnSect-76
*Connector Elasticity, nonlinear, component=1
0.0, 0.0
0.004519299352523376, 1.112308
0.00836431297557283, 2.224616
0.014603025420001359, 3.336924
0.022574888589588227, 4.449232
0.03311818318252335, 5.56154
0.04706035724666435, 6.673848
0.06381833827617811, 7.786156
0.0829276268632384, 8.898464
0.11574820746318437, 10.010772
0.1893126500362996, 11.12308
2.839689750544494, 22.24616
*Connector Behavior, name=ConnSect-77
*Connector Elasticity, nonlinear, component=1
0.0, 0.0
0.0733562592358794, 1.256397
0.14969373296480626, 2.512794
0.23222193703986704, 3.769191
0.32417414331575856, 5.025588
0.4316102422308177, 6.281985
0.5633581167785451, 7.538382
0.7322249439312145, 8.794779
0.9602592763258144, 10.051176
1.3048472465015948, 11.307573
1.8878772971220315, 12.56397
28.31815945683047, 25.12794
*Connector Behavior, name=ConnSect-78
*Connector Elasticity, nonlinear, component=1
0.0, 0.0
0.36907600588165224, 0.8005066
0.7571275637019426, 1.6010132
1.1722207273123786, 2.4015198
1.6472012794110924, 3.2020264
2.2081185306888074, 4.002533
2.899027313105762, 4.8030396
3.7766946479678154, 5.603546199999999
4.9386086175218225, 6.4040528
6.577002932317555, 7.204559399999999
9.10587259568274, 8.005066
136.5880889352411, 16.010132
*Connector Behavior, name=ConnSect-79
*Connector Elasticity, nonlinear, component=1
0.0, 0.0
0.08131705726555083, 1.0857430000000001
0.16595331544522196, 2.1714860000000002
0.2576622136984952, 3.257229
0.3596865280997008, 4.3429720000000005
0.4792221443494782, 5.428715
0.6255410698940977, 6.514458
0.8127622277243063, 7.600201000000001
1.0630722681526095, 8.685944000000001
1.434305595466867, 9.771687
2.0425929687917233, 10.85743
30.63889453187585, 21.71486
*Connector Behavior, name=ConnSect-80
*Connector Elasticity, nonlinear, component=1
0.0, 0.0
0.06852230399090331, 1.237854
0.139766725624213, 2.475708
0.21695534087484702, 3.7135619999999996
0.3030183506780304, 4.951416
0.4036788232042454, 6.18927
0.5271769259707071, 7.427123999999999
0.6853699596831575, 8.664978
0.8986101602204144, 9.902832
1.2207956751808524, 11.140685999999999
1.7663213657215238, 12.37854
26.494820485822856, 24.75708
*Connector Behavior, name=ConnSect-81
*Connector Elasticity, nonlinear, component=1
0.0, 0.0
0.35814162401948124, 0.8771737
0.7345911581069231, 1.7543474
1.1366869875928387, 2.6315210999999996
1.5945362974889576, 3.5086948
2.1337458747439086, 4.3858685
2.797030028887093, 5.263042199999999
3.6416109651327133, 6.140215899999999
4.765262710861862, 7.0173896
6.364386645145714, 7.8945633
8.85788758751005, 8.771737
132.86831381265074, 17.543474
*Connector Behavior, name=ConnSect-82
*Connector Elasticity, nonlinear, component=1
0.0, 0.0
0.009104144282900961, 1.4508670000000001
0.017869768953460152, 2.9017340000000003
0.028496065169747453, 4.352601
0.04174427431280492, 5.8034680000000005
0.05762491582572693, 7.254335
0.07851941518310923, 8.705202
0.10510590982448775, 10.156069
0.14292240848590154, 11.606936000000001
0.2163779026886914, 13.057803000000002
0.3913586988346651, 14.50867
5.870380482519977, 29.01734
*Connector Behavior, name=ConnSect-83
*Connector Elasticity, nonlinear, component=1
0.0, 0.0
0.026410200462123612, 1.3919489999999999
0.05337422408047132, 2.7838979999999998
0.0833808007882908, 4.175847
0.11783390618802514, 5.5677959999999995
0.15839699699427, 6.959745
0.20916724679409526, 8.351694
0.27408230380387977, 9.743643
0.36303816159488633, 11.135591999999999
0.509127348777838, 12.527541
0.7926734542706981, 13.91949
11.890101814060472, 27.83898
*Connector Behavior, name=ConnSect-84
*Connector Elasticity, nonlinear, component=1
0.0, 0.0
0.3401077992748469, 0.7505852
0.6974523421376944, 1.5011704
1.0801578901009634, 2.2517556
1.5197711763903499, 3.0023408
2.0397773187141865, 3.752926
2.681157784536481, 4.5035112
3.4955123555846512, 5.2540964
4.571513272821903, 6.0046816
6.087191286496818, 6.755266799999999
8.424741099588573, 7.505852
126.3711164938286, 15.011704
*Connector Behavior, name=ConnSect-85
*Connector Elasticity, nonlinear, component=1
0.0, 0.0
0.036617341265809955, 1.269128
0.07429001925629564, 2.538256
0.11591284419409931, 3.8073840000000003
0.16295765817631036, 5.076512
0.2183770811825525, 6.34564
0.2870072603400331, 7.614768000000001
0.3746097718249075, 8.883896
0.49244456022279337, 10.153024
0.6760533869965002, 11.422152
1.0055641905637458, 12.69128
15.083462858456187, 25.38256
*Connector Behavior, name=ConnSect-86
*Connector Elasticity, nonlinear, component=1
0.0, 0.0
0.22036816517356783, 1.0599830000000001
0.45115011744201183, 2.1199660000000002
0.6974657298997045, 3.179949
0.9716758358990774, 4.2399320000000005
1.291370572289452, 5.299915
1.68193771969527, 6.359898
2.183497854275629, 7.419881000000001
2.859931846614927, 8.479864000000001
3.8570608012378216, 9.539847
5.4642814211547375, 10.59983
81.96422131732106, 21.19966
*Connector Behavior, name=ConnSect-87
*Connector Elasticity, nonlinear, component=1
0.0, 0.0
0.34436332498444244, 0.9350822000000001
0.7062321674311534, 1.8701644000000002
1.0923869558610022, 2.8052466000000003
1.5301270468626171, 3.7403288000000003
2.0444951951503754, 4.675411
2.676393196452409, 5.6104932000000005
3.482460742816329, 6.5455754000000015
4.558743967209011, 7.480657600000001
6.101096514612436, 8.4157398
8.523332071490586, 9.350822
127.84998107235879, 18.701644
*Connector Behavior, name=ConnSect-88
*Connector Elasticity, nonlinear, component=1
0.0, 0.0
0.09376591151522007, 1.166528
0.19155735571985133, 2.333056
0.2969817251141649, 3.499584
0.4139741577091627, 4.666112
0.5506067100213841, 5.83264
0.7176748476922512, 6.999168
0.9318054071627557, 8.165696
1.2199134653201327, 9.332224
1.6490659618284553, 10.498752
2.356291370233521, 11.66528
35.34437055350281, 23.33056
*Connector Behavior, name=ConnSect-89
*Connector Elasticity, nonlinear, component=1
0.0, 0.0
0.012265693385415943, 1.442307
0.02435637725284323, 2.884614
0.0385184785045567, 4.3269210000000005
0.05563844297284959, 5.769228
0.07602064670209074, 7.211535
0.10236680282105226, 8.653842000000001
0.13595335076388437, 10.096149
0.18314432963961735, 11.538456
0.27000171030522324, 12.980763
0.4652672942029312, 14.42307
6.979009413043968, 28.84614
*Connector Behavior, name=ConnSect-90
*Connector Elasticity, nonlinear, component=1
0.0, 0.0
0.32572665077168494, 0.6308952
0.6679204670945182, 1.2617904
1.035388049785979, 1.8926856
1.4608587662223727, 2.5235808
1.9662524573504925, 3.154476
2.591014781501144, 3.7853712
3.3817157964222133, 4.4162664
4.418916360009462, 5.0471616
5.862570833414793, 5.678056799999999
8.059879182837903, 6.308952
120.89818774256855, 12.617904
*Connector Behavior, name=ConnSect-91
*Connector Elasticity, nonlinear, component=1
0.0, 0.0
0.31561063224216923, 1.010074
0.6470840162364766, 2.020148
1.0004371142713353, 3.0302219999999997
1.3979876530356705, 4.040296
1.863504439825192, 5.05037
2.434047491988167, 6.0604439999999995
3.1637470237910748, 7.070518
4.142843827139586, 8.080592
5.560017889365554, 9.090666
7.807021611370146, 10.10074
117.1053241705522, 20.20148
*Connector Behavior, name=ConnSect-92
*Connector Elasticity, nonlinear, component=1
0.0, 0.0
0.08719858669792302, 1.132015
0.1780571801646147, 2.26403
0.27623449568636715, 3.396045
0.3852957524941303, 4.52806
0.512842379976064, 5.660075
0.6688763096462935, 6.79209
0.8687143417773768, 7.924105
1.1368732521077618, 9.05612
1.5356732183136046, 10.188134999999999
2.1916485275141895, 11.32015
32.87472791271284, 22.6403
*Connector Behavior, name=ConnSect-93
*Connector Elasticity, nonlinear, component=1
0.0, 0.0
0.05906662408960983, 1.1319810000000001
0.12032909580739215, 2.2639620000000003
0.18721993910730816, 3.395943
0.2618300641188398, 4.5279240000000005
0.3494730481179431, 5.659905
0.4570228702505119, 6.791886
0.5944008808000945, 7.9238669999999995
0.7776886923238635, 9.055848000000001
1.0518496128497645, 10.187829
1.5097348659764975, 11.31981
22.646022989647463, 22.63962
*Connector Behavior, name=ConnSect-94
*Connector Elasticity, nonlinear, component=1
0.0, 0.0
0.3023650060640648, 0.5992483
0.6198802293511108, 1.1984966
0.9612146823201329, 1.7977449
1.3574889453593642, 2.3969932
1.8287984130438417, 2.9962415
2.4119399313349277, 3.5954898
3.1494838185608387, 4.1947381
4.1152010089717805, 4.7939864
5.457113729789853, 5.3932347
7.496659527532756, 5.992483
112.44989291299134, 11.984966
*Connector Behavior, name=ConnSect-95
*Connector Elasticity, nonlinear, component=1
0.0, 0.0
0.005524736934603425, 1.548051
0.010414167945782538, 3.096102
0.016927730257521034, 4.644153
0.025795372948778095, 6.192204
0.03651518227343331, 7.740255
0.051183060350012966, 9.288306
0.06981401838856982, 10.836357000000001
0.09698885151010472, 12.384408
0.1576888644194696, 13.932459
0.31854760891292244, 15.48051
4.778214133693837, 30.96102
*Connector Behavior, name=ConnSect-96
*Connector Elasticity, nonlinear, component=1
0.0, 0.0
0.32881373044801876, 0.6408928
0.6742700497852638, 1.2817856
1.0451120033394545, 1.9226784000000001
1.4742437633685768, 2.5635712
1.9837927538901567, 3.204464
2.6136101223528385, 3.8453568000000002
3.4109823172912, 4.4862496
4.457817121874541, 5.1271424
5.916660884395242, 5.768035200000001
8.1404868979007, 6.408928
122.10730346851051, 12.817856
*Connector Behavior, name=ConnSect-97
*Connector Elasticity, nonlinear, component=1
0.0, 0.0
0.30772956961300224, 0.6097534
0.6309125456027687, 1.2195068
0.9782040433492512, 1.8292601999999998
1.381073088850826, 2.4390136
1.8600151815917343, 3.048767
2.4524665786884725, 3.6585203999999996
3.2020205981098115, 4.2682738
4.184256831649691, 4.8780272
5.550504429265857, 5.487780599999999
7.62943469453603, 6.097534
114.44152041804045, 12.195068
*Connector Behavior, name=ConnSect-98
*Connector Elasticity, nonlinear, component=1
0.0, 0.0
0.07982450370036531, 1.257884
0.162970300152665, 2.515768
0.25269240722991526, 3.773652
0.3525473948684521, 5.031536
0.4691288631875068, 6.28942
0.6119791214587167, 7.547304
0.7951498264446855, 8.805188
1.0426402150187641, 10.063072
1.415794831700623, 11.320955999999999
2.04422467504628, 12.57884
30.6633701256942, 25.15768
*Connector Behavior, name=ConnSect-99
*Connector Elasticity, nonlinear, component=1
0.0, 0.0
0.3565387669368647, 0.9555210000000001
0.7313099195016548, 1.9110420000000001
1.131067328969948, 2.866563
1.5837003593333066, 3.8220840000000003
2.1153021953068674, 4.777605
2.7680909261107445, 5.733126
3.600885102059692, 6.6886470000000005
4.71348874270916, 7.6441680000000005
6.307897274382412, 8.599689000000001
8.811714360490441, 9.55521
132.17571540735662, 19.11042
*Connector Behavior, name=ConnSect-100
*Connector Elasticity, nonlinear, component=1
0.0, 0.0
0.3458409628365189, 0.9545413
0.70928581408225, 1.9090826
1.096998093998991, 2.8636239
1.5358540986198932, 3.8181652
2.0511906768660992, 4.7727065
2.6839683414436877, 5.7272478
3.4914538264274597, 6.6817891000000005
4.570572928059846, 7.6363304
6.11893308814615, 8.5908717
8.553470252081752, 9.545413
128.30205378122628, 19.090826
*Connector Behavior, name=ConnSect-101
*Connector Elasticity, nonlinear, component=1
0.0, 0.0
0.353978575731162, 0.8388610999999999
0.7260188431246206, 1.6777221999999998
1.1237119178986177, 2.5165832999999997
1.5777115186210722, 3.3554443999999997
2.113084337906912, 4.1943055
2.7721613878384233, 5.0331665999999995
3.610639541875571, 5.872027699999999
4.723846795968711, 6.710888799999999
6.303036352619529, 7.549749899999999
8.757028845138848, 8.388611
131.35543267708272, 16.777222
*Connector Behavior, name=ConnSect-102
*Connector Elasticity, nonlinear, component=1
0.0, 0.0
0.08709959729458205, 1.346449
0.17792741346056573, 2.692898
0.27555754058994353, 4.039347
0.38421738281613216, 5.385796
0.5107903416501358, 6.732245000000001
0.665891493554227, 8.078694
0.865070687723346, 9.425143
1.1357097537256777, 10.771592
1.5462431474588811, 12.118041
2.243560884380713, 13.464490000000001
33.6534132657107, 26.92898
*Connector Behavior, name=ConnSect-103
*Connector Elasticity, nonlinear, component=1
0.0, 0.0
0.340424885507673, 0.8978109
0.6981017941143364, 1.7956218
1.0800256131915376, 2.6934327
1.5141967742238194, 3.5912436
2.02501832973212, 4.4890545
2.653149131219834, 5.3868654
3.4538679756224155, 6.284676299999999
4.521241353359073, 7.1824872
6.047313800081611, 8.0802981
8.438826771453023, 8.978109
126.58240157179534, 17.956218
*Connector Behavior, name=ConnSect-104
*Connector Elasticity, nonlinear, component=1
0.0, 0.0
0.318785932904575, 1.045264
0.6536419823532924, 2.090528
1.0103779641212896, 3.135792
1.4105964510235935, 4.181056
1.8786327564157546, 5.22632
2.451712207403034, 6.271584
3.1851709354668856, 7.316848
4.170975007582456, 8.362112
5.601180600933731, 9.407376000000001
7.873681606724858, 10.45264
118.10522410087287, 20.90528
*Connector Behavior, name=ConnSect-105
*Connector Elasticity, nonlinear, component=1
0.0, 0.0
0.3409909550100565, 0.9351672000000001
0.6992894486756995, 1.8703344000000002
1.0816450958373025, 2.8055016000000004
1.5150262333918363, 3.7406688000000003
2.024240529863164, 4.675836
2.64979200437665, 5.611003200000001
3.447839117143303, 6.546170399999999
4.513529711402953, 7.481337600000001
6.041358574293554, 8.416504800000002
8.441811078228056, 9.351672
126.62716617342085, 18.703344
*Connector Behavior, name=ConnSect-106
*Connector Elasticity, nonlinear, component=1
0.0, 0.0
0.19971806977991946, 1.0805500000000001
0.4087929119123146, 2.1611000000000002
0.6320495594991371, 3.24165
0.8797632472123951, 4.3222000000000005
1.1682536569423974, 5.40275
1.5203244402073324, 6.4833
1.9726961909327656, 7.56385
2.5833630934357643, 8.644400000000001
3.486151690594852, 9.72495
4.945325781591237, 10.8055
74.17988672386855, 21.611
*Connector Behavior, name=ConnSect-107
*Connector Elasticity, nonlinear, component=1
0.0, 0.0
0.26363053621025756, 1.077336
0.540158107469324, 2.154672
0.83491402619984, 3.2320080000000004
1.1638455180218443, 4.309344
1.5476573025807738, 5.38668
2.0168439368717372, 6.464016000000001
2.6185662136413157, 7.541352000000001
3.4294274519197643, 8.618688
4.616753722075373, 9.696024
6.519252201542258, 10.77336
97.78878302313387, 21.54672
*Connector Behavior, name=ConnSect-108
*Connector Elasticity, nonlinear, component=1
0.0, 0.0
0.27018244509235956, 1.07546
0.5536407115869224, 2.15092
0.8557530236430466, 3.2263800000000002
1.1930912296520546, 4.30184
1.5868090849835426, 5.3773
2.06818847800605, 6.4527600000000005
2.6853897725231946, 7.52822
3.516869037412107, 8.60368
4.7329455264844, 9.67914
6.679420475848019, 10.7546
100.19130713772029, 21.5092
*Connector Behavior, name=ConnSect-109
*Connector Elasticity, nonlinear, component=1
0.0, 0.0
0.21478952476172708, 1.0790229999999998
0.4397074008011259, 2.1580459999999997
0.6797257083235309, 3.2370689999999995
0.9461652371101081, 4.316091999999999
1.256447721971199, 5.395115
1.6351419617421925, 6.474137999999999
2.1217540779616684, 7.553161
2.7788037550635636, 8.632183999999999
3.749608586076647, 9.711206999999998
5.3173338528722525, 10.79023
79.76000779308379, 21.58046
*Connector Behavior, name=ConnSect-110
*Connector Elasticity, nonlinear, component=1
0.0, 0.0
0.07308561180252582, 1.192469
0.1491202783654444, 2.384938
0.2314820812898688, 3.577407
0.3231652226531878, 4.769876
0.43043532059527934, 5.962345
0.5618921204586513, 7.154814
0.7302193262148649, 8.347283000000001
0.9565093205310404, 9.539752
1.296043919865042, 10.732221
1.8640731286723167, 11.92469
27.96109693008475, 23.84938
*Material, name=GOLD
*Density
1.42e-09,
*Elastic
54000., 0.4
*Material, name=MATERIAL-1
*Density
0.0001,
*Elastic
1e+06, 0.3
*Material, name=PI-2545
*Density
1.42e-09,
*Elastic
2300., 0.34
*Material, name=PI-2611
*Density
1.4e-09,
*Elastic
8000., 0.34
*Boundary
SET-6, 3, 3
*Boundary
SET-1, 1, 1
*Boundary
SET-1, 2, 2
*Step, name=Step-1, nlgeom=YES, inc=800
*Dynamic, application=QUASI-STATIC, initial=NO
0.001,1.,1e-7
*Boundary
SET-2, 1, 1, 34.0326635109489
SET-2, 2, 2
*Restart, write, frequency=0
*Output, field, variable=PRESELECT
*Output, field, number interval=1
*Node Output, nset=SET-CENTERNODES
COORD,
*Output, history, variable=PRESELECT, frequency=1
*End Step
*Step, name=Step-2, nlgeom=YES, inc=800
*Dynamic, application=QUASI-STATIC, initial=NO
0.001,1.,1e-7
*Boundary, op=NEW
*Boundary, op=NEW
*Boundary, op=NEW
SET-3, 2, 2
*Boundary, op=NEW, fixed
SET-4, 1, 1
*Boundary, op=NEW
SET-5, 2, 2, -48.340709
*Restart, write, frequency=0
*Output, field, variable=PRESELECT
*Output, history, variable=PRESELECT, frequency=1
*Output, field, frequency=99999
*Node Output, nset=SET-CENTERNODES
COORD,
*End Step
